Pt 
19.2088
1    0    0
0    0.989744283869893    0
0    0    1.5617841822498
Pt 
343
Selective dynamics
Direct
0.39013386584378   0.390607298031223   0.485789647696667   T T T
0.389654786026196   0.650987781188525   0.485767782786667   T T T
0.538439664263254   0.390607292596703   0.485789642743333   T T T
0.538918750291533   0.650987778116748   0.485767778096667   T T T
0.6130661820728   0.521208251756278   0.485791987506667   T T T
0.315507341359169   0.521208256833125   0.485791991086667   T T T
0.464286763568781   0.520938516891089   0.48615001835   T T T
0.0357143600849611   0.0208333563982369   0.0373427432943333   F F F
0.107143080254883   0.145833494787974   0.0373427432943333   F F F
0.0357143600849611   0.187500207584237   0.112028229882667   F F F
0.107143080254883   0.0625000691949211   0.112028229882667   F F F
0.0357143600849611   0.104166781991184   0.186713716471333   F F F
0.107143080254883   0.229166920380501   0.186713716471333   F F F
0.0357800803187081   0.0207354296202359   0.261477158711333   T T T
0.107212739987922   0.145704896204988   0.261501981690333   T T T
0.0357460970263629   0.18730353657518   0.336305377656667   T T T
0.107336855235621   0.0622900988007448   0.336373375616667   T T T
0.0357978472874932   0.103810896873521   0.412354402723333   T T T
0.107196829881617   0.229108482620793   0.41242850698   T T T
0.0357143600849611   0.27083363317729   0.0373427432943333   F F F
0.107143080254883   0.395833771566606   0.0373427432943333   F F F
0.0357143600849611   0.437500484363395   0.112028229882667   F F F
0.107143080254883   0.312500345973553   0.112028229882667   F F F
0.0357143600849611   0.354167058770343   0.186713716471333   F F F
0.107143080254883   0.479167197159659   0.186713716471333   F F F
0.0356257959091146   0.270716763775129   0.261475157055667   T T T
0.106877172648994   0.395694791356421   0.261413778190667   T T T
0.0357213317217629   0.437700595381815   0.336513049166667   T T T
0.10695201016305   0.312393384955659   0.33642235656   T T T
0.0357401890429387   0.354214123573781   0.41246313888   T T T
0.107819495577027   0.479032574585258   0.412803399603333   T T T
0.0357143600849611   0.520833909955922   0.0373427432943333   F F F
0.107143080254883   0.64583404834366   0.0373427432943333   F F F
0.0357143600849611   0.687500761143079   0.112028229882667   F F F
0.107143080254883   0.562500622750082   0.112028229882667   F F F
0.0357143600849611   0.604167335549501   0.186713716471333   F F F
0.107143080254883   0.729167473937239   0.186713716471333   F F F
0.0357554124053038   0.520994836087062   0.26168943888   T T T
0.107315352410354   0.645862258923405   0.261799304803333   T T T
0.0359560183245179   0.687505062682124   0.336512970276667   T T T
0.107679350901149   0.562569160258366   0.336962476736667   T T T
0.0364217540628254   0.603946646230236   0.412708941863333   T T T
0.108371512174628   0.728254071944792   0.412797956313333   T T T
0.0357143600849611   0.770834186736658   0.0373427432943333   F F F
0.107143080254883   0.895834325124396   0.0373427432943333   F F F
0.0357143600849611   0.937501037918556   0.112028229882667   F F F
0.107143080254883   0.812500899530818   0.112028229882667   F F F
0.0357143600849611   0.854167612330237   0.186713716471333   F F F
0.107143080254883   0.979167750717975   0.186713716471333   F F F
0.0357786422490733   0.770828229120862   0.261498079586   T T T
0.107244218980884   0.895726900146225   0.261510609103   T T T
0.035829928827933   0.937246092011277   0.336327574143333   T T T
0.107413227835679   0.812181270879138   0.336479157213333   T T T
0.036030599464256   0.85342991732503   0.412393006353333   T T T
0.107436136620716   0.9786636121777   0.41242158241   T T T
0.178571800424805   0.0208333563982369   0.0373427432943333   F F F
0.250000520594727   0.145833494787974   0.0373427432943333   F F F
0.178571800424805   0.187500207584237   0.112028229882667   F F F
0.250000520594727   0.0625000691949211   0.112028229882667   F F F
0.178571800424805   0.104166781991184   0.186713716471333   F F F
0.250000520594727   0.229166920380501   0.186713716471333   F F F
0.178719492942297   0.0207471787049622   0.261541513864333   T T T
0.250147786112094   0.145883547367424   0.261648215604667   T T T
0.17871551623735   0.187470037411502   0.336456107686667   T T T
0.250288090254987   0.0625997183559684   0.336485290316667   T T T
0.178839237880034   0.10423421053977   0.412490973976667   T T T
0.250215097597976   0.229982130981285   0.412761116323333   T T T
0.178571800424805   0.27083363317729   0.0373427432943333   F F F
0.250000520594727   0.395833771566606   0.0373427432943333   F F F
0.178571800424805   0.437500484363395   0.112028229882667   F F F
0.250000520594727   0.312500345973553   0.112028229882667   F F F
0.178571800424805   0.354167058770343   0.186713716471333   F F F
0.250000520594727   0.479167197159659   0.186713716471333   F F F
0.178311531434551   0.270700716133138   0.261398352901   T T T
0.249744660895527   0.395728503780284   0.261143171567   T T T
0.178223225398255   0.437080354213699   0.335918269833333   T T T
0.249427500912082   0.312515666188893   0.33590044132   T T T
0.178667917654408   0.354277026987976   0.412794687686667   T T T
0.25049395694161   0.478080962497502   0.409910416033333   T T T
0.178571800424805   0.520833909955922   0.0373427432943333   F F F
0.250000520594727   0.64583404834366   0.0373427432943333   F F F
0.178571800424805   0.687500761143079   0.112028229882667   F F F
0.250000520594727   0.562500622750082   0.112028229882667   F F F
0.178571800424805   0.604167335549501   0.186713716471333   F F F
0.250000520594727   0.729167473937239   0.186713716471333   F F F
0.178328550704365   0.520751147467362   0.26138355919   T T T
0.249854931524614   0.645921988312522   0.261378691310667   T T T
0.179311481165403   0.687096475420528   0.33731861704   T T T
0.249878404755112   0.562360802596282   0.33567073366   T T T
0.181090287407855   0.602851178478629   0.414294143533333   T T T
0.252480633391466   0.727631390494324   0.414276997806667   T T T
0.178571800424805   0.770834186736658   0.0373427432943333   F F F
0.250000520594727   0.895834325124396   0.0373427432943333   F F F
0.178571800424805   0.937501037918556   0.112028229882667   F F F
0.250000520594727   0.812500899530818   0.112028229882667   F F F
0.178571800424805   0.854167612330237   0.186713716471333   F F F
0.250000520594727   0.979167750717975   0.186713716471333   F F F
0.178723521820207   0.770668353380532   0.261781251016333   T T T
0.250091063622402   0.895684542747136   0.26163539937   T T T
0.178823336179251   0.937190573764715   0.336457725786667   T T T
0.250438044933572   0.811961548212163   0.336909767743333   T T T
0.179349138383449   0.853288653152253   0.4126405105   T T T
0.250360321648932   0.97917837959057   0.41250882145   T T T
0.32142924076465   0.0208333563982369   0.0373427432943333   F F F
0.392857960934572   0.145833494787974   0.0373427432943333   F F F
0.32142924076465   0.187500207584237   0.112028229882667   F F F
0.392857960934572   0.0625000691949211   0.112028229882667   F F F
0.32142924076465   0.104166781991184   0.186713716471333   F F F
0.392857960934572   0.229166920380501   0.186713716471333   F F F
0.321505451197888   0.0209067905749061   0.261539954563   T T T
0.392939821719212   0.146079372499711   0.261782501832   T T T
0.321736959171838   0.188116658919724   0.336921822226667   T T T
0.392990294265128   0.0629136592437329   0.33649674583   T T T
0.321818911251614   0.105249288496618   0.4126658475   T T T
0.392998287086127   0.232232035400646   0.414279157286667   T T T
0.32142924076465   0.27083363317729   0.0373427432943333   F F F
0.392857960934572   0.395833771566606   0.0373427432943333   F F F
0.32142924076465   0.437500484363395   0.112028229882667   F F F
0.392857960934572   0.312500345973553   0.112028229882667   F F F
0.32142924076465   0.354167058770343   0.186713716471333   F F F
0.392857960934572   0.479167197159659   0.186713716471333   F F F
0.321223848374183   0.270756086837648   0.261369309070667   T T T
0.392798488171047   0.395685134725276   0.260910406601   T T T
0.321629971303777   0.437679361834755   0.334968378783333   T T T
0.3926582007356   0.312577630563124   0.335662406136667   T T T
0.320691732042605   0.355285637160606   0.409898207586667   T T T
0.393332800608575   0.479535422540738   0.409890369456667   T T T
0.32142924076465   0.520833909955922   0.0373427432943333   F F F
0.392857960934572   0.64583404834366   0.0373427432943333   F F F
0.32142924076465   0.687500761143079   0.112028229882667   F F F
0.392857960934572   0.562500622750082   0.112028229882667   F F F
0.32142924076465   0.604167335549501   0.186713716471333   F F F
0.392857960934572   0.729167473937239   0.186713716471333   F F F
0.321228001793969   0.52089872755131   0.260911238823   T T T
0.392728252732081   0.645961443056417   0.260903902608   T T T
0.321559676081796   0.687679224413259   0.33565705614   T T T
0.393043667374328   0.562415779721015   0.33487508939   T T T
0.322930960243742   0.603362300260891   0.409351802983333   T T T
0.394129419916913   0.729451775839216   0.40988693141   T T T
0.32142924076465   0.770834186736658   0.0373427432943333   F F F
0.392857960934572   0.895834325124396   0.0373427432943333   F F F
0.32142924076465   0.937501037918556   0.112028229882667   F F F
0.392857960934572   0.812500899530818   0.112028229882667   F F F
0.32142924076465   0.854167612330237   0.186713716471333   F F F
0.392857960934572   0.979167750717975   0.186713716471333   F F F
0.321462710828891   0.771046718769396   0.261356192828   T T T
0.392920774253988   0.896132760427734   0.261377769239333   T T T
0.321560382531965   0.937504673239777   0.336458371463333   T T T
0.393159198740681   0.81304355559179   0.33586958681   T T T
0.32210119664737   0.853846261521792   0.41273975326   T T T
0.393013027190663   0.979843487071187   0.412475224363333   T T T
0.464286681104494   0.0208333563982369   0.0373427432943333   F F F
0.535715401274416   0.145833494787974   0.0373427432943333   F F F
0.464286681104494   0.187500207584237   0.112028229882667   F F F
0.535715401274416   0.0625000691949211   0.112028229882667   F F F
0.464286681104494   0.104166781991184   0.186713716471333   F F F
0.535715401274416   0.229166920380501   0.186713716471333   F F F
0.464286725077048   0.0210699266390347   0.261505051939   T T T
0.535633624921911   0.146079364656687   0.261782501040667   T T T
0.464286745189184   0.188444381815504   0.337303417296667   T T T
0.53558320361501   0.0629136462565354   0.33649674265   T T T
0.464286758328474   0.10590883963065   0.412789714496667   T T T
0.535575224011911   0.232232024450078   0.41427915441   T T T
0.464286681104494   0.27083363317729   0.0373427432943333   F F F
0.535715401274416   0.395833771566606   0.0373427432943333   F F F
0.464286681104494   0.437500484363395   0.112028229882667   F F F
0.535715401274416   0.312500345973553   0.112028229882667   F F F
0.464286681104494   0.354167058770343   0.186713716471333   F F F
0.535715401274416   0.479167197159659   0.186713716471333   F F F
0.464286724440881   0.270720411485498   0.261375709118   T T T
0.535774956707343   0.395685127050043   0.260910405736333   T T T
0.464286744234934   0.437774266760643   0.334876909646667   T T T
0.535915294818   0.312577617334498   0.33566240272   T T T
0.464286757379951   0.356035564970702   0.409355401856667   T T T
0.535240710476448   0.479535412782062   0.409890366836667   T T T
0.464286681104494   0.520833909955922   0.0373427432943333   F F F
0.535715401274416   0.64583404834366   0.0373427432943333   F F F
0.464286681104494   0.687500761143079   0.112028229882667   F F F
0.535715401274416   0.562500622750082   0.112028229882667   F F F
0.464286681104494   0.604167335549501   0.186713716471333   F F F
0.535715401274416   0.729167473937239   0.186713716471333   F F F
0.46428672366103   0.520847093563997   0.260721903847667   T T T
0.535845192219191   0.645961435050863   0.260903901455333   T T T
0.464286744230769   0.687262493814368   0.334955161536667   T T T
0.535529827068843   0.562415767070977   0.33487508606   T T T
0.464286757261255   0.603712029828843   0.40987951492   T T T
0.534444088922785   0.72945176641875   0.409886927233333   T T T
0.464286681104494   0.770834186736658   0.0373427432943333   F F F
0.535715401274416   0.895834325124396   0.0373427432943333   F F F
0.464286681104494   0.937501037918556   0.112028229882667   F F F
0.535715401274416   0.812500899530818   0.112028229882667   F F F
0.464286681104494   0.854167612330237   0.186713716471333   F F F
0.535715401274416   0.979167750717975   0.186713716471333   F F F
0.464286724244096   0.771083320800766   0.261119628207667   T T T
0.535652672545916   0.896132752274903   0.261377768123333   T T T
0.464286745713944   0.937867138982106   0.33640518746   T T T
0.535414297290825   0.813043542762916   0.335869582993333   T T T
0.464286757555912   0.85439829591096   0.412743908196667   T T T
0.535560484553954   0.979843476514586   0.412475221726667   T T T
0.607144121444338   0.0208333563982369   0.0373427432943333   F F F
0.67857284161426   0.145833494787974   0.0373427432943333   F F F
0.607144121444338   0.187500207584237   0.112028229882667   F F F
0.67857284161426   0.0625000691949211   0.112028229882667   F F F
0.607144121444338   0.104166781991184   0.186713716471333   F F F
0.67857284161426   0.229166920380501   0.186713716471333   F F F
0.60706801107305   0.0209067721812769   0.261539951759667   T T T
0.678425674295115   0.145883517278743   0.261648211601333   T T T
0.606836535358794   0.188116633820575   0.336921818026667   T T T
0.678285421936821   0.0625996777496081   0.336485275646667   T T T
0.606754606680271   0.105249267841025   0.412665838703333   T T T
0.678358412383907   0.229982105922638   0.412761111083333   T T T
0.607144121444338   0.27083363317729   0.0373427432943333   F F F
0.67857284161426   0.395833771566606   0.0373427432943333   F F F
0.607144121444338   0.437500484363395   0.112028229882667   F F F
0.67857284161426   0.312500345973553   0.112028229882667   F F F
0.607144121444338   0.354167058770343   0.186713716471333   F F F
0.67857284161426   0.479167197159659   0.186713716471333   F F F
0.607349612854525   0.270756069061846   0.261369306274667   T T T
0.678828798175836   0.395728474071892   0.261143168029   T T T
0.606943521032027   0.437679336896559   0.33496837484   T T T
0.679146009547707   0.31251562524853   0.335900427186667   T T T
0.607881783432593   0.355285615212657   0.409898198443333   T T T
0.678079550128066   0.47808093753511   0.409910411926667   T T T
0.607144121444338   0.520833909955922   0.0373427432943333   F F F
0.67857284161426   0.64583404834366   0.0373427432943333   F F F
0.607144121444338   0.687500761143079   0.112028229882667   F F F
0.67857284161426   0.562500622750082   0.112028229882667   F F F
0.607144121444338   0.604167335549501   0.186713716471333   F F F
0.67857284161426   0.729167473937239   0.186713716471333   F F F
0.607345458597101   0.520898710022197   0.260911236562333   T T T
0.67871852882533   0.645921957805153   0.26137868782   T T T
0.607013817302486   0.687679198960646   0.335657051596667   T T T
0.67869510560264   0.562360762289736   0.335670721196667   T T T
0.605642554193911   0.603362280736174   0.40935179416   T T T
0.676092874416934   0.727631367224566   0.41427699414   T T T
0.607144121444338   0.770834186736658   0.0373427432943333   F F F
0.67857284161426   0.895834325124396   0.0373427432943333   F F F
0.607144121444338   0.937501037918556   0.112028229882667   F F F
0.67857284161426   0.812500899530818   0.112028229882667   F F F
0.607144121444338   0.854167612330237   0.186713716471333   F F F
0.67857284161426   0.979167750717975   0.186713716471333   F F F
0.607110750504977   0.771046700107302   0.261356189814   T T T
0.678482397536546   0.895684511776896   0.261635395442667   T T T
0.607013112599434   0.937504647776644   0.336458367143333   T T T
0.678135465927075   0.811961507163972   0.336909753003333   T T T
0.606472319770105   0.853846241670962   0.412739743793333   T T T
0.678213188278289   0.97917835539507   0.41250881595   T T T
0.750001561784182   0.0208333563982369   0.0373427432943333   F F F
0.821430281954104   0.145833494787974   0.0373427432943333   F F F
0.750001561784182   0.187500207584237   0.112028229882667   F F F
0.821430281954104   0.0625000691949211   0.112028229882667   F F F
0.750001561784182   0.104166781991184   0.186713716471333   F F F
0.821430281954104   0.229166920380501   0.186713716471333   F F F
0.749854019157886   0.020747126759644   0.261541505927333   T T T
0.821360750619508   0.145704820211658   0.261501984956667   T T T
0.749857983741827   0.187469993200013   0.33645609522   T T T
0.821236702027196   0.0622900453318465   0.33637329912   T T T
0.749734282079047   0.10423418412144   0.41249093008   T T T
0.821376674836533   0.229108479489054   0.412428467033333   T T T
0.750001561784182   0.27083363317729   0.0373427432943333   F F F
0.821430281954104   0.395833771566606   0.0373427432943333   F F F
0.750001561784182   0.437500484363395   0.112028229882667   F F F
0.821430281954104   0.312500345973553   0.112028229882667   F F F
0.750001561784182   0.354167058770343   0.186713716471333   F F F
0.821430281954104   0.479167197159659   0.186713716471333   F F F
0.750261979811336   0.270700664833945   0.261398345221333   T T T
0.821696315860439   0.395694715340999   0.261413781735667   T T T
0.750350272047187   0.437080309418361   0.335918259273333   T T T
0.821621545161593   0.312393331118042   0.336422278163333   T T T
0.749905601354588   0.354276999994214   0.412794642363333   T T T
0.82075400653867   0.479032571430375   0.4128033614   T T T
0.750001561784182   0.520833909955922   0.0373427432943333   F F F
0.821430281954104   0.64583404834366   0.0373427432943333   F F F
0.750001561784182   0.687500761143079   0.112028229882667   F F F
0.821430281954104   0.562500622750082   0.112028229882667   F F F
0.750001561784182   0.604167335549501   0.186713716471333   F F F
0.821430281954104   0.729167473937239   0.186713716471333   F F F
0.750244960783599   0.520751096598428   0.261383552840667   T T T
0.821258138649994   0.64586218327565   0.261799308917   T T T
0.749262018861147   0.687096430685153   0.337318606556667   T T T
0.820894202235434   0.562569107743612   0.33696240152   T T T
0.747483229405273   0.60285115571908   0.414294102503333   T T T
0.820201991431011   0.728254070698198   0.412797919956667   T T T
0.750001561784182   0.770834186736658   0.0373427432943333   F F F
0.821430281954104   0.895834325124396   0.0373427432943333   F F F
0.750001561784182   0.937501037918556   0.112028229882667   F F F
0.821430281954104   0.812500899530818   0.112028229882667   F F F
0.750001561784182   0.854167612330237   0.186713716471333   F F F
0.821430281954104   0.979167750717975   0.186713716471333   F F F
0.749849989983758   0.770668300897337   0.261781243121667   T T T
0.821329272218983   0.895726823588508   0.261510612979667   T T T
0.749750164049811   0.937190529555329   0.336457714053333   T T T
0.821160327511349   0.812181217890994   0.336479081826667   T T T
0.749224379867561   0.85328862813095   0.412640467213333   T T T
0.821137368263504   0.978663609889648   0.41242154412   T T T
0.892859002124026   0.0208333563982369   0.0373427432943333   F F F
0.964287722293949   0.145833494787974   0.0373427432943333   F F F
0.892859002124026   0.187500207584237   0.112028229882667   F F F
0.964287722293949   0.0625000691949211   0.112028229882667   F F F
0.892859002124026   0.104166781991184   0.186713716471333   F F F
0.964287722293949   0.229166920380501   0.186713716471333   F F F
0.892793627988214   0.0207353006750544   0.26147696322   T T T
0.964286767117155   0.145688531664545   0.261454699913333   T T T
0.892827416595519   0.187303552981306   0.33630533591   T T T
0.964286744471284   0.0622426493530334   0.336304157473333   T T T
0.892775643418641   0.103810901575337   0.412354361883333   T T T
0.964286745543709   0.229006848524075   0.41231746742   T T T
0.892859002124026   0.27083363317729   0.0373427432943333   F F F
0.964287722293949   0.395833771566606   0.0373427432943333   F F F
0.892859002124026   0.437500484363395   0.112028229882667   F F F
0.964287722293949   0.312500345973553   0.112028229882667   F F F
0.892859002124026   0.354167058770343   0.186713716471333   F F F
0.964287722293949   0.479167197159659   0.186713716471333   F F F
0.892947910379618   0.270716634688457   0.261474960037   T T T
0.964286765305485   0.395922067481774   0.261542830984   T T T
0.892852178157928   0.43770061207408   0.336513007373333   T T T
0.964286744096456   0.312517334819954   0.336338260593333   T T T
0.892833299951064   0.354214127747504   0.412463096446667   T T T
0.964286743799717   0.479297258401098   0.41259672033   T T T
0.892859002124026   0.520833909955922   0.0373427432943333   F F F
0.964287722293949   0.64583404834366   0.0373427432943333   F F F
0.892859002124026   0.687500761143079   0.112028229882667   F F F
0.964287722293949   0.562500622750082   0.112028229882667   F F F
0.892859002124026   0.604167335549501   0.186713716471333   F F F
0.964287722293949   0.729167473937239   0.186713716471333   F F F
0.892818291428928   0.520994708377955   0.261689243855   T T T
0.964286767242097   0.645946039333467   0.261561858071667   T T T
0.892617494372371   0.687505078072566   0.336512930176667   T T T
0.964286742503436   0.562769878280857   0.336588380996667   T T T
0.892151731050352   0.603946650233013   0.412708901746667   T T T
0.964286744179751   0.728628378496513   0.41245121308   T T T
0.892859002124026   0.770834186736658   0.0373427432943333   F F F
0.964287722293949   0.895834325124396   0.0373427432943333   F F F
0.892859002124026   0.937501037918556   0.112028229882667   F F F
0.964287722293949   0.812500899530818   0.112028229882667   F F F
0.892859002124026   0.854167612330237   0.186713716471333   F F F
0.964287722293949   0.979167750717975   0.186713716471333   F F F
0.892795064616217   0.770828099932673   0.261497884883333   T T T
0.964286767158802   0.895797786611473   0.261460906227333   T T T
0.89274358449773   0.937246108138104   0.336327533406667   T T T
0.964286743591479   0.812353888158933   0.336319608256667   T T T
0.892542889540211   0.853429922400825   0.412392966366667   T T T
0.964286745512473   0.978570512397564   0.412348152463333   T T T
