38
lj38_benchmark
H      50.000000000000000     50.000000000000000     50.000000000000000
H      49.717427674281645     49.586161734796839     49.925692218363828
H      49.420673386226504     49.355267808909261     50.441154924749767
H      49.291937441137129     49.834133866041988     50.503087651869656
H      48.788790214901816     49.654511663701648     50.080520746346330
H      50.173009931428091     48.979423847699536     49.976833590933381
H      48.437609790476877     49.003448880382109     50.243192442895911
H      48.145238956212395     49.960236925983232     49.829692036193926
H      48.710937005422494     49.303771363761925     49.698729720039466
H      48.156997035961339     48.559458570418926     50.842878132777273
H      50.837522852648526     49.076536213265442     49.932231516712577
H      48.810744553032094     50.121936624755577     51.022685704993627
H      50.475426175724238     48.404753491589986     50.155911960769082
H      48.020719906589726     50.336670678853039     49.358449331971812
H      50.586226938208853     49.907252775634134     49.921833023132493
H      49.049733384665892     48.935290161429599     49.220357599687915
H      48.055416841276838     48.373989190471370     50.025503044285223
H      50.545648448888322     48.919801323816031     50.346855944993123
H      48.137648999049297     50.822406535605190     49.100554945052735
H      51.046656871792365     48.559582923548398     50.616427358625117
H      48.487516975055627     48.606676889361466     49.256928047391945
H      49.157096282490059     48.674917911816131     49.828334301694717
H      47.870508410911853     50.907115157611422     49.648498939557641
H      48.247468023323741     49.043164653359717     51.254407188409459
H      48.222492856589248     49.727517781233509     50.449730815035096
H      47.721810769682207     48.827244137406716     50.823574773733469
H      49.425629528481380     50.367190716309047     50.811913183306999
H      48.745172063882180     48.672324841277565     51.670616412566382
H      48.300487717877473     48.446355680902222     52.266646456078035
H      48.949561605639062     48.511343674477153     51.047807205248667
H      47.744711654283265     48.717697634377529     52.586953112725666
H      50.511691164883260     49.987675937464317     49.132282868148813
H      47.156991817031681     48.744659510945695     50.758656858513874
H      48.819093918747996     48.893853691258833     48.528092652099360
H      50.557857568462111     47.986556141350697     50.737324981684594
H      49.306594536476148     49.252439369597390     48.815358738158970
H      49.438930884093956     48.938760380080780     51.685237538707128
H      51.418867087014185     48.764723412567065     49.918175502742855
