38
lj38_benchmark
H      50.000000000000000     50.000000000000000     50.000000000000000
H      49.895099339852223     49.654305179573342     50.654279366858042
H      49.658477853997759     50.327435679453032     49.474603138750005
H      49.774705155712532     49.047643626729887     50.554539387259787
H      49.916440809530478     49.351053792046820     51.195083362416113
H      50.287891141540683     49.893424889648344     49.295443708420038
H      49.955692105388408     50.466111816299097     49.018326547900564
H      49.143585470491736     50.159339158886254     49.010346324022201
H      48.821298119511752     49.757627565959851     48.898045298001591
H      50.529214505631487     49.653193163462340     51.379673333589466
H      49.581667524785480     50.499737840885814     48.626172908606527
H      48.938411247491615     50.123928430710727     48.205894568277216
H      48.420510170958806     49.658894312231929     49.498387594489259
H      50.162813298780939     48.833068497314144     51.432148818354293
H      48.890941730604311     50.121166836923798     47.515251611173198
H      49.251679643689613     50.836657265873356     48.060991104624087
H      48.826045901029438     50.301018773215766     49.725401435609214
H      50.404876511372677     48.160912158035408     51.276881091950088
H      49.298956493713916     48.772204039359821     51.090760039811322
H      50.364978935564565     50.545814489304171     49.474627875918941
H      49.642680413708810     48.611455308173731     50.284108849980022
H      49.516379971358006     51.181143011650242     48.839409443324556
H      49.445241856119878     48.024524281717127     50.659512121537702
H      47.789561804841483     49.448770806359420     49.085467151660694
H      50.458506841650390     49.150655172815654     49.275472607788736
H      49.095059349867498     48.884462135953143     51.819451173496560
H      50.397148372896233     47.453455148174157     50.920831763349028
H      50.199212667358495     51.061177482035333     48.862060163770813
H      49.533017504724775     50.899815990295608     47.416006945640525
H      49.694174850013951     49.847023324720972     48.549130827454540
H      48.234715210739893     50.272056449153126     47.804500632929489
H      50.420590554920096     49.442475219417389     48.809337145876697
H      49.866591108635902     51.538636796489627     47.270476948433540
H      50.759396757046069     51.105457029838568     49.484360108399201
H      47.792059220881022     50.087459905580950     47.442148899009879
H      48.637749243051047     49.453837859259821     49.969381850034871
H      51.165377561010416     50.872540350270690     49.036835827161909
H      48.548690750151621     50.217561971958119     49.120371845601511
