38
lj38_benchmark
H      50.000000000000000     50.000000000000000     50.000000000000000
H      49.518980740464158     49.440710051438025     49.796754982590436
H      49.557311467361579     49.517348271071889     50.564683341693900
H      49.455414364204771     49.914603243737560     49.187491700953899
H      49.203045893055446     49.661241554951346     50.159216468708493
H      49.821932942197506     48.887438601450356     50.705303375438291
H      49.960961636968662     50.618320696061886     50.342183680777161
H      48.898198055965409     50.163638402630198     49.454926731099924
H      49.818675160448940     50.214847360569181     49.416194322146715
H      49.204582956946538     48.556159718563258     50.454369311467744
H      50.490321621524181     49.494595068764930     50.295887228298959
H      50.609864462974919     48.847276539408135     49.935125050644672
H      49.178259678292505     49.520637114037655     48.855468665421085
H      50.305340169925834     49.092746930069055     50.761042451696284
H      49.860058607484234     49.231790958729519     48.601264741795035
H      49.683428909105167     48.556987643161200     51.158687302208939
H      49.267553405672025     50.221746420273284     50.796233194313828
H      49.640011676356622     48.483697506785887     48.665509118540882
H      50.612757959826148     50.818328588123251     50.528077049407543
H      49.635938820043641     48.332880233871713     49.277165420941280
H      48.778537795460345     49.772240161133908     49.029252839129960
H      50.034615310068375     49.874263426397881     49.036246425464121
H      50.809968974947580     50.581212255544983     51.244623168925926
H      49.804702441954177     48.324265508311647     50.028942657113703
H      48.900053568370893     48.963902411528373     49.309611721800799
H      49.239813481149824     47.969212609111523     50.985282126429006
H      50.060419701416386     47.966005628672200     51.106132954405844
H      50.483799660782289     47.501088590201782     50.812785037192405
H      50.146928814781603     50.530221378927216     49.207114840913952
H      48.884828791045855     48.593439379010213     49.992745755062828
H      50.569926008840071     50.144890155799054     51.072877053151686
H      51.349487839137510     50.820659320493725     51.089598962887550
H      51.395772187858270     51.265492737499692     50.563238495407681
H      50.845929127601714     49.922285523720966     50.384785313518215
H      48.412667077269347     49.343732852977105     49.426174030623301
H      48.695059587807833     50.236001864612405     51.240270837280384
H      51.356700872703115     49.423568895787582     50.310556988225386
H      48.993797478710668     48.023648408861867     48.566093578492094
