38
lj38_benchmark
H      50.000000000000000     50.000000000000000     50.000000000000000
H      49.528982992789409     50.287098739575491     50.339232349800085
H      50.104811908770920     50.185504448113917     50.507906363402839
H      49.049861806114180     50.309256876507618     50.048345925229462
H      49.195790520737823     50.606909353326287     49.431731878295608
H      49.462153775991162     51.132327748602776     48.937802618240489
H      50.006622628387127     50.532215502319687     50.867546871791369
H      49.031736407804139     50.956295162215476     50.085543051174056
H      48.419105254111344     50.103292652719517     50.054580696412806
H      49.408888283731613     50.754642040399361     51.073914040279163
H      50.269593355929686     49.583613464270222     50.651407772278873
H      48.873281354798543     50.077085352790483     50.609126756167711
H      49.338158831713741     50.032286116513902     51.135808594538261
H      48.125507370396456     49.648951645061715     50.083928828214212
H      49.578180766321132     49.840182585787979     49.478033973148143
H      49.020187782816592     50.576407605244128     48.724772793570835
H      49.012401046031300     49.629281283989073     50.861373609228025
H      49.172748327386984     49.745203204744563     48.962958477163681
H      48.625490903600799     50.828619566507825     51.034796893476667
H      49.492534946780886     50.899183238139599     50.357327702495681
H      49.125953740264954     48.978910196165927     49.191562388783872
H      48.535531191265619     51.202174245100338     48.794742279011757
H      49.859333396091792     49.601663990071714     51.354466740961456
H      49.494669519508129     49.357098305802694     48.773505873480246
H      49.969905484985013     51.327705162845270     50.035533335133138
H      49.063179814668281     51.760676775100492     48.878521627963778
H      48.767100423806198     50.007514399821694     51.321713906664442
H      49.727020149251693     49.322163125321978     51.925182879692052
H      49.599535243839540     51.833759880602990     49.430653007636579
H      49.586614209688818     49.716103630006714     48.361981332871665
H      48.474244200262092     50.749253380549064     50.021252934037499
H      49.447482113061398     52.326737973511420     49.529564284292597
H      49.079871745165121     48.822730168066570     48.705156716584590
H      49.525915113217366     49.026595133680580     48.380282206925877
H      49.865400626598785     49.365950422855136     50.071242641360698
H      48.244337335594231     49.867647310471682     51.698097091857576
H      47.848613154106054     51.231156849988388     49.198236939048854
H      49.184011460250943     48.912120765742408     49.863254545819949
