38
lj38_benchmark
H      50.000000000000000     50.000000000000000     50.000000000000000
H      50.434088972922254     49.871475127855035     49.490973253213397
H      50.463473512267484     49.880522095512816     50.145594673881099
H      50.480283948421622     49.093551743510311     50.021492349165548
H      50.919186236182185     50.038269861773777     49.265745589100732
H      49.751040505539407     50.461861678791003     50.529546314708426
H      49.928022851227446     49.362956273367644     49.488234137553668
H      51.401880105634746     50.107959055441100     48.901618807142221
H      50.872319318159001     49.377394992906702     48.972268414032612
H      50.585108314219298     49.506045978801417     50.659685136337380
H      51.205042201567878     49.768995833966315     50.404970704047699
H      50.530059633505395     50.451951110680440     48.916135853804271
H      51.255282051329061     50.459993294363308     48.430846116908732
H      50.480547379150131     48.769463724284826     49.334054379563511
H      49.329579713578930     50.236667614703912     50.846325754896974
H      50.450679447231472     48.335836724520959     50.199022262396753
H      51.613532767561708     49.236757301446303     48.723995111022361
H      51.956073695556547     50.340557600354700     48.107176070697058
H      49.026593786406757     49.885905653800762     50.414276071819565
H      50.228237536889978     48.479653540248044     48.959799075669295
H      51.284828188358226     49.012745190214190     49.111244631930319
H      49.704569333430520     48.092209234474566     50.357290868903789
H      50.271108723545112     47.931146752765301     49.700560626370248
H      50.789175208718007     48.290171344889792     48.512024097233372
H      52.297112480292213     50.947412958953073     47.752539740444121
H      50.619865173865847     50.909050310091445     49.495666086905082
H      49.253842999369823     47.773226378642661     49.911798422917613
H      50.307127182398908     51.244626971115657     49.721643544950275
H      50.574679642779010     49.900299172892531     48.686254392730405
H      51.138405702808676     50.467479063663632     49.120089041539941
H      50.771000333480757     49.261511700880206     49.455972338717636
H      50.921997934750742     48.817343391200886     50.635830687621052
H      50.711510052860660     50.685863815739090     50.186399006630772
H      49.127744394443503     49.163402941945762     50.116802667449306
H      52.034595832533242     50.031104280785023     48.639918757798718
H      50.313587024003603     50.598367306447727     50.795059009580143
H      49.821151119328810     50.300832135857135     49.579914709941249
H      49.663388993187773     48.359620639711160     49.269185545848643
