38
lj38_benchmark
H      50.000000000000000     50.000000000000000     50.000000000000000
H      49.995176322940893     49.348416206685101     50.101576691674694
H      50.302303180686650     50.392798664128115     50.486761483064889
H      50.548833323714163     48.821216236776827     50.248199416344626
H      50.797289926354225     50.824734569039904     50.498488969117112
H      50.645030449412090     51.315654513746637     49.979384751221581
H      50.512699656367857     49.986695669004412     49.861861981983807
H      50.689452437082167     49.975019020783051     50.771057548327917
H      50.914042127337403     51.874525470575016     50.473162680488237
H      50.096657173765152     51.328241233738837     49.934147217292924
H      51.183505663233596     49.791649748518658     51.001547708897647
H      49.677903060659702     50.015864406626349     49.403875376802425
H      50.560751980374967     50.197908084586501     49.401370753327953
H      50.705497129509908     51.948884867272582     50.924504223619749
H      50.701377406511739     51.119497550793078     49.431060360653923
H      51.075709816591001     51.387439098931019     49.105498343886907
H      51.108503828476429     48.649173923098111     49.831909378530170
H      51.022354404295498     51.984615200188941     49.046130654727612
H      51.416311452320251     52.196060160724933     48.439350147424598
H      50.789455359294649     52.302223787133556     49.899936325345770
H      50.272000286242893     51.881520071878789     49.584186237262038
H      51.403161224916801     51.781216788413957     50.592597266282674
H      50.595265420354764     50.449404284899281     48.963366340830291
H      50.904548854620870     52.942895699985655     50.243955445482619
H      51.626391209547080     48.469360368529955     50.357330937757055
H      51.490174079505742     51.998130328252714     51.092708474144523
H      50.427809034940161     49.189983619232962     49.588289057532151
H      50.001218606150914     50.665546217027099     50.807565242828609
H      51.644418727274605     49.150295212647414     49.686290708243902
H      51.059219875114408     50.016357430310563     49.148514854684898
H      49.847605239526146     52.048712690803754     48.960369838246507
H      50.336528199670816     50.183547873860178     51.255280191812375
H      50.020378287794713     50.879434223550149     51.486612780425745
H      49.464215671906636     51.758252551917089     49.196707264520214
H      51.256047044387074     51.065835296464002     49.601563606922817
H      50.489617423535293     53.310491429136114     49.669568663549704
H      50.120420779865512     50.834607934929068     49.390106065886812
H      51.660075239448460     52.282706033439602     48.922165932462448
