38
lj38_benchmark
H      50.000000000000000     50.000000000000000     50.000000000000000
H      49.845289376660531     49.723084341828610     50.390933404488123
H      49.468031447451480     49.923386211455821     49.759840925566131
H      50.228444676573552     49.445737387403170     50.723963634855878
H      49.949752463485240     50.253073594865349     49.460141526601326
H      48.744001199882831     49.872619589255336     49.534732206920161
H      48.899291588960835     50.499626961944706     49.053713668981153
H      50.010173723745694     50.975310027455834     49.693313735833449
H      48.439142919519298     49.352173242588592     50.012038562377192
H      50.449515019680099     50.626321389248950     50.057952740535967
H      50.638370711059352     50.760696883522414     50.570655202018237
H      48.855823193678376     49.623377852902749     50.162566272503781
H      49.405913833255696     49.151668789792318     49.571910375815953
H      49.594787522058532     50.441438259476875     50.518238335850434
H      49.580199023687037     48.830213064155075     48.898461581751135
H      49.044102003021955     49.376741950637943     48.939962267483949
H      49.139699020756304     48.997769723539008     48.528630458683345
H      47.790694599673834     49.559419272166537     50.378592651931072
H      48.531620884326351     49.022926270079751     48.602061336931129
H      49.365036657821896     51.049519612979864     50.721108341996356
H      49.352897461520854     50.962250818373697     48.663717703853017
H      49.387595966329030     48.105658192587178     48.935360886857929
H      50.022309125110418     50.061828943631035     48.826733036253792
H      48.792097873634525     51.008708704223857     49.024680346279446
H      49.069479478651189     50.317571424408442     51.034343304735309
H      50.777766206607055     50.087144983652614     50.232000918771163
H      48.535839804411758     51.188856915051673     48.455887569862419
H      49.143874609812165     51.431807510932416     48.952194072540628
H      50.249736343923900     49.299975765633810     50.061196797726936
H      48.259140427171580     49.782106630286819     48.982126859087131
H      49.073519532512577     51.597841141864940     50.231797417017304
H      48.822956436202460     51.126615310090571     50.221008180348846
H      48.736458484096829     51.903446029958332     48.319310925315413
H      49.347753566465656     51.980088496736371     47.931068813658143
H      47.456009976362417     49.904358656842568     50.840814220776437
H      49.901057153030536     49.859798485161193     50.962824061315970
H      49.649201445195878     48.794213120927779     49.888444415394041
H      47.940518707456476     49.668269801299232     51.233740915973478
