38
lj38_benchmark
H      50.000000000000000     50.000000000000000     50.000000000000000
H      49.611256694503417     50.136118960633787     49.515706537636049
H      49.967235724031369     50.696286072481769     49.332424936823159
H      50.405973677171737     49.712530166330737     49.390702609236243
H      49.668628751402132     50.788208594187061     48.592024232547324
H      49.361159802490441     50.384265037121565     49.117142560058191
H      49.243170037363591     51.285747472056663     48.615099806024830
H      50.603846279024907     49.745954355940640     49.911065618872513
H      50.170021827319331     49.312927892921962     49.630968045007776
H      49.170979727514045     51.545711825836236     47.973780219001945
H      49.058277827350011     49.963808826037038     49.141672989659376
H      50.180551495826734     49.696809500441212     50.521573989788138
H      49.418642920414776     49.528434876949085     48.764480226416843
H      49.765208469395176     48.972919534192734     48.947238592093548
H      50.020843744842004     50.940833391312566     48.264762708918916
H      50.454107146620181     49.458361085356756     48.800642948420254
H      50.101862881367623     51.059013060653371     49.790490891592448
H      48.781473997643168     51.611459327906559     48.869589699800400
H      51.153931657787844     49.782687062047103     49.387437823333805
H      49.501753644454823     51.059228330657902     49.904310632917301
H      50.327509960564569     50.564074023606494     48.457008976667723
H      50.741617575243197     50.108925417034783     49.048737654785199
H      48.680476747738524     52.067976007599171     47.685395073235163
H      49.615553057799644     49.734546312055734     48.325209407670556
H      48.458081505202621     51.442919443354747     48.359423688314010
H      49.062222827055692     51.577734457309191     49.864415435495594
H      47.928415581053152     51.986537157353517     48.304652484844851
H      49.962854229266227     48.311973922898162     48.767565080515382
H      50.526607544353368     50.432897508615859     49.727037374174380
H      50.316256695710834     49.758167215050221     51.100184756058511
H      51.330458978495798     50.315975038501819     49.494675556285358
H      50.935713384225551     50.353120031184048     50.394086348669241
H      50.682312482124956     49.890010885672339     50.767231386245342
H      48.481608253880019     52.489547342432509     47.879545590385618
H      50.646823176505819     47.954169363235728     48.897267255185554
H      48.519358711699546     53.290960229690867     47.931275214945110
H      50.647819238525635     48.505629594494955     48.402916746200454
H      50.874901822096625     50.607603448938782     49.170768836683564
