38
lj38_benchmark
H      50.000000000000000     50.000000000000000     50.000000000000000
H      49.647504857457974     49.385581556472594     49.680922215735123
H      50.479027512172493     50.604813538973488     50.209476229016076
H      50.686801257362752     51.044095141248881     50.338421980421664
H      50.370280095567054     50.490901284178904     50.875024664135452
H      49.093772529248305     49.581455286117915     50.232048598214803
H      49.627210717391264     48.919396773090881     49.290921908235767
H      49.360322755172035     49.812662093735348     49.764720495458015
H      50.342538034759620     51.656346690824257     50.221371950138234
H      48.952193756593502     48.965467683471395     49.071305176474453
H      49.825232541363739     49.666736671587579     49.307035554526564
H      49.446867098892604     49.743917550982367     48.609247312273190
H      50.257359540279580     49.069828355830168     49.477152627065038
H      49.859490203290434     49.992795022383440     48.741454441898419
H      50.772311412085827     48.834645221177929     49.363189489286093
H      49.061053338126733     50.441416313185115     50.124465769833506
H      50.173168181773079     50.183609319011005     49.356274289544253
H      51.070117128016726     48.470307873978911     49.989945396745433
H      50.695510342842212     48.536694224969992     48.828140363152862
H      51.543978451635091     49.060301299438329     49.946461313709221
H      51.276305388657782     48.695268989999434     48.455355782130241
H      51.326377783204293     48.831922115584348     49.050403033004699
H      51.662459414982294     49.003970574089678     48.638697084823875
H      49.400904010473141     50.305702019555063     48.293861963091317
H      50.558759974900802     51.434129207726322     50.992244013189364
H      51.793448140558596     49.495633257529235     48.737044995988136
H      50.466925084190862     48.455933188435573     48.126088116949354
H      49.271615864041379     49.732512579585375     47.965700276221867
H      50.467049149615875     48.342403293185313     47.603928913468607
H      48.573788922521821     49.781442308761505     49.646747097328117
H      51.738895179245311     48.353125737002529     48.694018258786130
H      47.890830031686725     49.583557861392947     49.862312006078888
H      51.428727833185164     48.912156259262858     47.697317929823662
H      51.412582449492270     49.978198701068024     48.819209944912210
H      50.234708565480723     51.117477095346324     49.698901801048493
H      52.393235003644776     49.485773482755256     48.763492600232304
H      49.138235175661038     50.949851137088885     50.329904792654972
H      49.581959690793873     50.811872964338491     50.558729803368003
