38
lj38_benchmark
H      50.000000000000000     50.000000000000000     50.000000000000000
H      50.275794702759903     49.674832800908796     50.510569368041963
H      50.315915978543380     50.177406066334470     49.507127183170667
H      50.382085139711641     49.839051608657144     48.790728151998344
H      49.623250751053902     49.745118330217544     50.347778155770975
H      49.642719539722023     49.943212468815339     49.243035814527609
H      49.664010052523842     50.466276303346994     48.698794159868264
H      50.062742655455637     50.886709262612285     48.486650568594627
H      49.819495308891909     50.658820184036806     50.056457584513922
H      49.503722285621251     50.589778983140185     50.509701487537328
H      49.083940007088877     49.318077059006804     50.211213894015494
H      48.577048324522814     49.455927434922941     50.171377442874793
H      48.996016458721307     50.623217960390093     50.857523385627452
H      50.669077084211317     50.996740130477953     48.021489410985048
H      48.397365449869092     50.163661600815608     50.950887926445283
H      50.833719339978728     51.179511249889288     47.578329611756502
H      49.427477352469651     50.885757719669087     49.465199576516156
H      49.947938769496098     49.196332303014344     48.913449561156561
H      50.147499526895388     49.084981450706287     48.244327665497025
H      50.592991929764487     50.728531031459390     49.340950551874329
H      50.185301961457590     48.435472199876401     48.702578827186755
H      48.862071725438255     50.970124152118167     50.492164491349783
H      48.107411265447830     49.623295417967796     49.870002519143462
H      49.548640191654265     49.008237458556721     50.714287852618817
H      50.395849014787736     48.050762452431101     49.096498713710233
H      48.886059811812821     50.143141759440617     49.119550566192295
H      50.095749734710580     49.317930083193801     47.580234849050953
H      50.930414316352831     48.217398944991253     49.259310918737505
H      50.305691163754311     48.271238713801630     49.773613543423885
H      50.748708925460484     49.279051779720078     50.752701159182635
H      48.783149901500053     49.755881734750147     50.545922540325471
H      48.368705898658327     50.568340446597112     49.374128776392922
H      49.708822792417067     48.099041653716981     50.091069543541259
H      49.413944560832562     51.128060677584763     50.137664611736099
H      49.971973017955186     48.658111265666790     50.985187940084224
H      50.576466875811427     48.251836943269169     50.300792140464104
H      49.892634512523628     48.283165832574326     51.525898186866094
H      51.307805378337271     50.747576904812654     48.288433182122077
