38
lj38_benchmark
H      50.000000000000000     50.000000000000000     50.000000000000000
H      50.145848230720055     49.306409774683182     50.161258068656181
H      50.531048577655611     50.113106608773116     50.419974817524889
H      49.990954565653830     48.671583729999746     50.152973499584697
H      49.650795478258040     48.122922027856667     50.382529305033721
H      50.597101668923258     50.626440313823537     50.392338868263302
H      49.907533013634549     50.107971410699164     50.842012784837884
H      49.347606574949950     50.163196058971913     50.028470165763970
H      50.506085865115992     49.389586828066392     49.480388601282428
H      50.519731125598668     49.651157772184874     50.906486188024203
H      50.102811047657653     49.103281739875065     50.896968609448280
H      49.365767130529740     49.486818449379598     49.668282684415594
H      50.003204529230125     48.990133940471068     49.370536102567364
H      49.176771690816629     50.923589592869057     50.031382334742545
H      50.410020794654990     49.496375744868068     48.947637357089576
H      50.898049617872687     49.133461241959573     51.037716058631347
H      48.723325960256339     49.990110609436499     50.265614162544210
H      49.098427248891070     49.698382685801995     49.286139832279481
H      50.914816651513014     49.006284190857329     50.512088220779937
H      49.981780378034216     49.895644264300586     48.493874483767833
H      50.391034052308648     50.520432668061808     48.449878875007478
H      49.561131216583803     51.485837319756364     50.315146035454276
H      49.226640452832790     50.290486306409697     50.889935173681025
H      49.892034756373043     51.120784693305204     49.772093042569921
H      49.382349154554497     52.173440378689520     50.114533332963958
H      50.907952310381489     50.540024498545307     49.802926830535810
H      49.777862662340951     50.935362784229184     50.319205321891694
H      50.126648167293745     48.527113377683314     49.040043847789846
H      49.473252266020147     49.891865705010879     48.370743132061783
H      49.373621374205477     50.253054834461544     49.246854560959797
H      50.174795214738012     50.575459709616702     51.304234853965518
H      50.138345908722123     50.262871637682437     51.737366517828065
H      49.553399085029405     49.194659581318589     50.452369683544674
H      51.230381879284636     49.921620255320533     49.914003014455076
H      49.826827040772720     47.762466682930238     50.804251942743669
H      49.102300337196731     48.997560515948642     50.810992708641116
H      50.183060972629328     50.706807337630529     49.943993830568004
H      49.872888449440488     49.290320286563023     48.703370545906694
