38
lj38_benchmark
H      50.000000000000000     50.000000000000000     50.000000000000000
H      50.505887619230862     50.565910684192986     49.941791201348423
H      51.292381969214205     50.733397569947009     49.935180704927916
H      51.740113609510928     50.305623513559617     50.064811302140015
H      50.628269646681929     50.642993533486433     49.376607701044598
H      51.717768614855430     49.661954610612710     50.488986579013641
H      51.149053801991229     51.101113790937141     49.010552850979941
H      51.687002512796660     50.098033800509157     51.124392242365104
H      49.792355606966801     49.855705462535340     50.550917041834239
H      50.172956272967149     49.454768234852885     50.270773336887942
H      50.795806968975143     51.271269883675792     50.252760050083992
H      51.539915805650715     51.189803999132337     48.517436181805614
H      49.681758875440536     50.425776555438468     50.774805675695866
H      50.151328946025778     50.568304432051782     50.981799665126943
H      51.794198591063676     51.120047793725988     49.345648603775942
H      51.690292272109815     49.618418486135539     51.705454276595518
H      51.645468457018559     49.854925757994010     52.244741151561151
H      51.341440506260803     50.157060347043000     52.840561664696452
H      51.045715142950691     49.812194860997394     52.529809338459444
H      52.360871263833687     50.389364900910245     49.754160290406070
H      51.283074286424160     50.641124899295285     48.717877432753944
H      51.247437444657677     50.049256429667047     49.662629064501196
H      52.231896073105155     49.339267845728827     50.138996654523865
H      52.097681126085945     49.491019200785445     52.283722314886141
H      52.690156943743844     49.394665461125491     52.070533542555559
H      50.704983883862262     49.460601032027476     52.070783984526997
H      50.299799643536197     50.220858166502389     50.509466335403395
H      52.318099516849635     49.283919883169091     49.526289372035421
H      51.736708868615203     49.543204467697109     51.184136841316167
H      53.260530979400968     49.757319726278006     52.306156426292716
H      51.106664087345166     50.584704724245277     48.134051956750277
H      53.371126272484865     49.697374043991097     51.789696744994060
H      52.591705963836972     50.371492971272893     49.189926897660690
H      51.805306303344103     50.345277853994610     52.255073612779405
H      49.032841989512512     50.827169909446923     50.646650629623508
H      51.006325266333867     51.715387513409574     49.343501655805937
H      50.306334242939720     49.010617264338627     49.855466139447600
H      53.090648913191316     50.283650082117376     51.791775336307786
