38
lj38_benchmark
H      50.000000000000000     50.000000000000000     50.000000000000000
H      49.827412691203158     49.811164892500202     50.730885122720728
H      49.249903355710238     49.587331208046940     51.221377307700386
H      50.154774321855975     49.543131634374006     49.487216366282887
H      50.313743780308116     49.881982821428139     50.584369406304361
H      50.081991571387064     49.159650900598876     48.833115580177882
H      49.360549812491321     49.027211535786975     51.789333382122905
H      49.660120523516788     50.599441447271737     49.844925372204791
H      50.042141614637565     50.295876692265793     50.964545565544697
H      50.147363786494779     48.659135220117534     49.379709341972479
H      49.960989607096600     48.518926026432162     51.964395662590128
H      50.669845132204756     49.146813955396581     48.805171629039009
H      49.888810484040214     48.872161531629821     51.457119225620040
H      49.838707122382026     48.462841476596154     52.748221815839372
H      50.369882133694510     48.521787936423344     51.661974482627265
H      50.684154621920364     49.364095921750391     49.264753088374505
H      50.687341567697153     50.152721576652880     50.940243701799488
H      50.645930402520023     50.338416539668970     49.699640497812027
H      49.519191034326020     49.264119072515868     49.400869331492551
H      51.384008681519063     49.455139722434268     48.767723673666907
H      49.147686023306967     48.116290589225642     52.902887662157958
H      49.611704735933124     48.930420397006060     52.647209028270353
H      50.641831991305558     48.756928569266321     49.742271201197923
H      49.495297284859546     50.334069520176705     50.707190523331036
H      49.256808418192854     51.194180963873620     50.138959189865815
H      49.140163085618518     50.526464028210718     51.088424972345948
H      49.573196986084653     49.007217364214974     48.497756708846801
H      48.522197088478102     51.150470755924957     50.440982368882736
H      49.845484428753146     48.005010061613078     52.005004397546585
H      48.639825545740059     48.421608542905354     52.459546081154635
H      48.575183735746776     48.841094241049859     52.717786688391776
H      49.713009072295080     48.608645323701040     47.984641840468115
H      51.355035441285850     50.032604940019645     48.423818430127369
H      50.035289873401751     49.970338926797901     51.394539092583386
H      48.219709815012685     49.195254394032247     52.374365762224457
H      49.074928648359020     49.204169055623268     48.388413691845315
H      51.015654329310969     49.813568621370862     49.490125776543074
H      48.616223405883524     50.892527176769178     49.838238510638192
