38
lj38_benchmark
H      50.000000000000000     50.000000000000000     50.000000000000000
H      50.094706640556858     50.457871788971346     49.782155893929556
H      50.343795971314073     49.636481268563486     49.962380565700883
H      51.109102192684496     49.508643339764077     49.850870603306909
H      50.870370975047905     49.471781574523220     49.131056550827381
H      51.120402021654023     49.046965823241464     48.703829624439571
H      50.776291061094895     49.154321121099990     50.436724206600509
H      51.211294103446093     48.667190647532195     48.141671698713580
H      50.505493855598949     48.936467161613919     50.031584942974767
H      51.621576953801366     49.093247370899974     49.093806149637835
H      50.051325786249706     51.141217085579520     50.189073723612459
H      50.734814604317194     48.574130416989327     50.525673944286567
H      51.680182994442340     49.032014692850773     47.875382287618102
H      50.885280826359320     49.071290419765944     47.810094283280705
H      50.361173359726187     49.335670829935523     49.230886519517114
H      50.275668139536990     49.351046765445410     50.618529629001593
H      50.099690537327923     48.214696665461709     50.618228845405973
H      49.384779829503785     51.001346225758184     50.448313098281844
H      48.850160296447051     51.031001531836530     50.398760728222776
H      49.563130800143654     47.862435867953344     50.361908847162248
H      50.344620256019333     51.530289688567180     50.782378672758334
H      52.337006419902636     49.117887821795371     47.798048014108133
H      48.944110749380954     50.511212286808856     50.320064821500793
H      51.385768881228991     49.117472755720911     47.146536342321234
H      50.583154233928319     48.618943407345036     48.173892574464709
H      50.284573943024647     48.100708394949514     48.173606943003790
H      50.156829001038759     49.062691481803746     48.284860205048922
H      51.406238805062010     48.289789682160972     50.474405784399430
H      49.842508116334045     48.360402397464831     49.937899652973677
H      48.650382019940487     50.587975861280682     50.941686916347301
H      48.185687393978618     50.103987277708697     50.718125633329123
H      48.813077165725332     50.087567432497799     51.495582671387396
H      49.638198682472563     51.151667145578138     50.926670072967845
H      49.209395836842383     49.796935087032111     51.702638923600702
H      51.282238094327198     49.950563358776890     49.459485620519274
H      49.358702644378454     48.321333305746698     50.612400505032930
H      52.052599634180289     48.813978941196048     48.250171523659475
H      49.604941957620134     50.018039051559882     50.621993494819741
