38
lj38_benchmark
H      50.000000000000000     50.000000000000000     50.000000000000000
H      49.860898680182935     50.445169709134959     49.390195804920005
H      49.147822942258699     50.469137452262260     49.362388228383722
H      49.306697824594167     50.114264355546581     50.163970623790874
H      49.739037731157367     51.076916229944381     49.610365179057311
H      50.410447189698644     49.701620925748415     49.581684672513298
H      49.945457199445059     51.141807031798820     48.979939613837971
H      51.042998898995464     49.424205978939035     49.303318872781823
H      51.493134553580070     49.037499433126079     49.821993421492166
H      51.320806450513203     48.646106973662739     50.330351056328759
H      49.039452300474238     49.459015132928073     49.932452137315522
H      50.189600722210628     49.388119307110991     48.927252370879884
H      51.117976802680481     49.904818520461902     49.171282546890993
H      50.779584641799993     48.187766905137607     50.214342991122301
H      49.782810961561346     49.612343974180639     48.480051987088167
H      49.691312996885031     51.659956841045165     49.925368821407631
H      50.548878069456762     50.319761879125778     49.683495850937874
H      50.216202055868145     49.416052193580775     50.197829832684903
H      49.560149932380675     49.142881251070634     50.022622584156331
H      48.949795021466954     48.820302886581032     49.789980010607415
H      50.480787783331451     48.959279047321793     50.028520712761114
H      50.868000378044997     49.039909289013636     50.673142378166794
H      50.701563328352798     49.618377235460962     48.439736601720071
H      51.347956542868260     49.820826800306222     49.817862401916933
H      50.260387606868044     49.515719182447157     48.089195038037090
H      52.023378916073227     49.856857895935207     50.004006697329970
H      52.263847273925933     49.427762873729804     50.406568717846682
H      50.498023402895306     48.603786434340627     50.613834797174910
H      51.475892730078591     48.077252759622468     50.480449240222839
H      49.869876682572240     49.068287605086901     48.057981549823722
H      50.319599310051281     51.608325011531058     50.123395589656660
H      49.957055418967073     51.241216564262629     50.676264683067323
H      49.141874621698747     49.147897060756200     48.251647474249943
H      50.720561670587564     50.709736744372691     50.107839726447175
H      49.869827076312497     50.027424672162105     50.514626511872905
H      50.295641165076191     51.238118625563125     49.497075460457907
H      49.720518524022332     50.524727124333509     48.558298249264347
H      49.483797112649931     49.475759319820988     50.453626855377358
