38
lj38_benchmark
H      50.000000000000000     50.000000000000000     50.000000000000000
H      49.548589901061618     50.169525231071979     49.601667466434712
H      49.647368870948839     49.321612391096956     50.037927928998684
H      50.626144395433464     50.485882123352880     50.047971514654158
H      50.137397433003173     50.559059586312195     49.562137207457695
H      49.792046330933182     51.269441842035420     49.703424242455000
H      50.265134962717440     50.688914638154856     50.510741372852316
H      49.971012435773503     50.640366374192119     51.095008538957771
H      49.897290282039791     48.911819357224708     50.480375648196663
H      49.239536462678501     48.946055888385246     49.921092201536922
H      49.363148078880059     50.487826971906493     50.678670274134909
H      50.716754820510403     50.945033830598696     49.169207331134444
H      49.360277401294887     50.019082045617125     49.014676960407044
H      50.441390883570172     51.257872553799707     51.245163186305128
H      48.896319447314283     49.541787858715182     50.299312368763175
H      50.178346107466808     51.611250447047333     50.999426713538917
H      50.115545319932373     50.364491394219300     51.678586701466365
H      49.332740428010517     50.712787313833424     48.974396932278601
H      50.871071581448355     51.211616540827961     51.771872831703277
H      50.418936434473181     50.010148023157932     50.439203374419201
H      50.143484966349455     51.139873500437055     52.079460173288581
H      49.624357623033951     51.868029668465745     49.902542054454379
H      50.778837215812715     51.729737949851980     51.503287675598528
H      49.444097320805817     52.607793212929543     49.820390010222425
H      49.804421404995843     51.453181669425511     50.604330826417097
H      50.646744624920764     52.205334787023972     51.421992154218756
H      51.096501590497923     51.673614840331680     51.062389805714901
H      48.591004226137102     50.042936253843322     50.374902987707301
H      50.195673264746631     49.586427411030584     50.646011920549931
H      48.856517727610331     51.212930016683877     48.820479705402789
H      49.419452810453436     51.143821218855940     48.441235472370423
H      48.568946916685611     50.656803136666738     48.879004836588244
H      49.704361831256598     49.762806310978867     51.808224998117353
H      50.202897828714136     50.996568180024340     49.039766472956650
H      49.353682796064859     50.057475837245235     50.377423809561854
H      49.360579753555186     49.321740891374880     49.351459685119728
H      50.745208540932310     51.501344338160429     50.367989757365322
H      49.270549812818153     49.296428014994632     48.624006884230894
