38
lj38_benchmark
H      50.000000000000000     50.000000000000000     50.000000000000000
H      49.659151401156947     50.360427993197447     49.436378951436041
H      49.634510804463886     49.451474792138725     49.679571078596176
H      50.107305979549814     49.636128434610562     50.607921570692795
H      50.194950611690004     49.253277132681667     50.213023740594132
H      49.724488486561334     48.858242120123350     50.220892465730742
H      50.925297831213271     49.199007207444858     49.903175624026510
H      51.343538868663018     48.974908328016831     49.422363008922730
H      49.169081332442822     50.376167509407523     49.057077784006850
H      49.826637363303007     50.411858966099317     50.652592972692567
H      49.652881006143311     48.361360417110134     50.099279186042345
H      51.449271477218218     48.355362413354946     49.781717283605467
H      49.119268309246259     49.485437770042587     50.043189711780805
H      50.057919329497892     50.844600941160017     50.545876254736747
H      49.292176259939346     48.019563126878992     49.610883799546436
H      49.061174987403696     51.084733779786646     48.884887769175080
H      48.720945355246911     47.579718566428021     49.382136640554947
H      51.767778158697141     49.321847052819280     49.345391561039037
H      50.690131021194290     49.460643008669713     50.394982043305895
H      50.653434603131487     49.649848183534893     50.898948915000695
H      51.263106003439852     49.903662029028872     50.286529495289550
H      51.897359871620253     48.671059285885732     49.921039283569662
H      51.265922086830997     50.572927587055844     50.459698923360207
H      49.570332387923187     51.477887721504203     48.459714224822150
H      49.356028087981855     51.127131838591772     47.871470541199209
H      50.061997855684012     48.010332107629296     50.549752150133770
H      50.797458196906511     50.246587294358548     50.390130188513631
H      49.226253467478529     47.936438483131965     50.460751498553876
H      50.065214785138835     51.907017706086037     48.156830834520797
H      50.102815841299140     50.998834970762736     48.100606992869750
H      52.037057582279118     48.795401842141985     48.959426766651326
H      48.730629770086118     48.173371585685402     50.626118372179967
H      50.015700793980194     50.994301947894442     49.931292464518663
H      50.166512672994507     48.986601370259073     49.621187883102415
H      50.462702338250033     51.687346428539982     47.640015054248636
H      50.452940393999619     48.449725277572533     50.646330831314792
H      48.147302891484607     47.839355321778356     49.759079517922579
H      51.682419961239084     48.633908661393257     50.472622678623615
