38
lj38_benchmark
H      50.000000000000000     50.000000000000000     50.000000000000000
H      49.599955078642360     49.416249008414205     49.763256390037157
H      50.260713933481277     49.913959513119799     50.703826376778274
H      49.448384335746297     50.506534405656311     50.212865876057066
H      49.293247290507338     49.851596704527950     50.357195750548918
H      50.469540535560213     49.395650043242782     49.814580513709636
H      50.655639653919287     49.983268913729560     51.201732891887382
H      50.874676243617905     50.025898632524481     50.529063968769300
H      51.008983956786629     49.377104103265182     49.913481224269006
H      50.622822900487584     50.686108334888949     51.156769253719027
H      49.094299403029524     50.592928037980336     49.817487518466109
H      49.187074415213246     50.073178309375088     49.246399183915322
H      49.669548590826096     49.560582661313973     50.916145669867788
H      50.643049041659530     50.423009047222379     50.088292676679266
H      49.276517781754507     51.304037754862854     49.681340385540061
H      49.325440800888984     51.248177144429206     49.074225708611756
H      50.896718672041175     49.572034196985797     50.741253108027912
H      48.685623338817294     50.581650254267217     50.403699022459719
H      49.286408069654911     50.525437253986055     48.734355706378487
H      48.618173967766992     50.714825635793972     51.186969847009067
H      50.363491101889281     48.880867094926515     49.661575142954796
H      50.660224261916781     48.223590987486006     49.994865596182493
H      50.688968928845910     49.035395267920293     48.988169868643510
H      49.659191874137662     48.911599231813653     49.618201682728881
H      50.354085164882527     47.882003700839604     50.359285733832841
H      50.644394994893673     49.716868326085638     48.769749491592783
H      50.028061275750275     50.962301562164456     51.337124402127536
H      49.893293503377791     50.276716670046561     49.028913184497888
H      48.996328924112781     49.363264127776844     49.469820298157956
H      49.159052484904137     49.205354992103011     48.973947885648585
H      51.210323734878493     49.137605054667354     51.094749793350388
H      49.207269943969806     51.154029869007253     50.979558405888085
H      49.306615239497489     50.671268852979388     51.205838383444892
H      48.967676901705801     49.387362567571017     51.249175493735365
H      49.672456139083913     49.082065341508837     51.096645364447610
H      48.758297287934525     49.178363920156151     48.567906099589443
H      49.188379153663426     49.988059807681402     48.288891534274377
H      48.734396461199310     51.485415252009751     49.806186942653696
