38
lj38_benchmark
H      50.000000000000000     50.000000000000000     50.000000000000000
H      50.139541871077292     50.441411435025451     49.419327206187624
H      49.893939768372711     49.969681106560536     49.248277572179596
H      50.468300060639677     51.030899065914639     49.072250343807887
H      50.294218413603147     50.697175037338411     50.206346628680564
H      49.740914840906846     50.278029723710560     50.332356386595954
H      50.247601739588106     50.510878029535924     48.508714115310532
H      50.640657420874888     50.042133023141851     50.289825473574915
H      51.217547405670892     49.514372641774422     50.132252288441549
H      50.277910646709913     51.738426666255542     49.100688380820216
H      49.822928832542033     50.923216517745161     50.174385957007516
H      50.640891064677788     50.631405476159529     50.921072472899176
H      49.282592166853519     51.255723495706071     50.030395522195342
H      49.828691171931638     49.971402702293808     51.041471966567627
H      49.122306160973103     51.732189744285563     50.624298231439440
H      51.687796313089954     49.390909493697272     49.600118111831144
H      49.777853770534733     51.207343614507579     49.408621828296788
H      49.205424092285725     49.740665688840970     51.044972549358405
H      50.885412938455744     49.089414854709105     50.614262557455518
H      50.045306476827612     51.845818258066423     48.561203420762098
H      51.780453598710110     49.772561066766897     50.364929374827746
H      49.929775723657450     51.116195772618205     50.949011390552535
H      50.048090839934680     49.890903989673212     48.403767187171304
H      49.511370252664868     50.508420350756381     51.428847922068890
H      50.955699675775250     48.999220276480031     50.064559873420649
H      52.117132249331355     49.118639467164805     49.600553896559894
H      48.959009019165173     51.971557759660740     50.028137062926618
H      49.450586947667041     50.358533848633890     49.733765508496766
H      49.269913333965270     50.514150146748435     50.955658372073991
H      48.284157971754304     51.767568875198030     49.788933740305595
H      49.077764337625872     50.469676000572896     50.304483693141989
H      50.430479398291823     48.480928377860799     50.370690654837027
H      47.939665248094890     51.595169521178207     50.186738797221402
H      50.159930680196140     50.440708612971321     50.792915378476458
H      52.706109761856418     49.152575344988094     49.118502560384186
H      51.983873124041082     48.396075673820050     49.620615758861170
H      50.283548216478636     47.808643373133044     50.776999170193186
H      50.243132716702100     49.777180712264013     49.607850758015609
