38
lj38_benchmark
H      50.000000000000000     50.000000000000000     50.000000000000000
H      50.275103887984031     50.074583100991646     49.398183420288539
H      50.321194105728374     49.576582739430691     49.573508948159883
H      49.721888443777914     50.452825093967462     50.432100607097851
H      50.238906064216231     49.732809146578248     50.568410300614680
H      50.775716116736930     49.430734800813198     50.463212680248944
H      50.341208495369870     49.683378917760272     49.077909736329140
H      49.755346175610597     50.405647404973131     51.109032647255951
H      50.407289367293529     50.062504817805184     50.973893699131210
H      51.130600544338549     49.205760605312037     51.042727190694904
H      51.079245950637201     49.911481367023477     50.255105225846279
H      50.980082730292686     50.425611181140297     50.428586927175850
H      50.923583336533738     49.603731538136145     51.297413548435621
H      50.088057753851899     50.846274290909307     50.648677868932566
H      51.129965578334414     51.076583665785655     50.405608171367433
H      51.332405353394378     50.362594979987392     50.043709238708665
H      50.471518689646530     50.922613948123434     50.102111083673847
H      49.559635499828538     49.506797676702213     49.501957075508798
H      49.171639321281589     50.778177957754025     50.221393084754602
H      50.845923433479634     48.570798569671219     50.762719827200208
H      50.595571403675009     48.367570065491357     50.112016602713410
H      50.198718935002375     47.807706088306858     50.377341850505857
H      49.808702113609549     50.442486614532825     48.865404128359614
H      49.579177215182881     49.795183851610801     51.291744531994723
H      49.957168507886927     47.452238627662595     50.086251849987939
H      49.351612273945413     48.954725125669668     49.278466586501786
H      51.339624956593092     48.122511152417701     51.063475891838266
H      49.461904741140962     47.577173448844668     49.463009226026450
H      51.293066485712572     50.080668443228753     51.524315250559951
H      51.377170269824532     49.754166104653763     50.947175593747964
H      49.860897417386539     50.770015036652183     49.796570527490097
H      51.334552709067673     49.264433092329490     50.480323925422780
H      50.575704265766433     49.445154507706022     51.994992688737803
H      50.806967875886144     49.871680842802064     49.379865171095318
H      50.026094372519452     49.140355702373412     48.931939144709993
H      51.832346327131340     48.980263000913460     50.962930555358774
H      48.903956183336206     49.628262495046755     49.152623712245592
H      49.407701111099080     50.977378354704854     48.943789852727782
