38
lj38_benchmark
H      50.000000000000000     50.000000000000000     50.000000000000000
H      50.296588399670341     50.220140695777218     50.510021685713831
H      49.754027067841619     50.082650407711490     50.932122253874105
H      49.373394040571810     50.459455201634832     49.924779958163121
H      49.224525819990752     50.945770893666946     50.529364447727424
H      49.687311878005097     51.176412745754313     50.858146468461484
H      50.092201136668585     51.722187621528775     50.598098682300808
H      50.843971825363610     49.916844712476816     50.511400656810899
H      48.839620670536299     50.236954501692217     50.004252463591925
H      49.614528721686781     52.074701207376407     50.180504538698457
H      49.840186170548670     49.583170935783478     50.770425608312316
H      48.976973274698061     51.493147591147590     50.480672761103790
H      49.534571089715044     50.991356522455554     49.450600159918018
H      50.653256903588215     49.761772498675008     49.892588957228980
H      49.172387804017731     50.040509865303321     51.040107898617137
H      49.001467186617340     49.505563903309962     50.561695458321893
H      48.948451398892431     51.033476182007483     51.053498323270880
H      51.192362677047925     50.317895815722864     50.020733359323934
H      48.260402518310769     49.383996147968666     50.446463301287579
H      48.437620122265486     51.207327518753040     50.938262905961459
H      49.201895504777205     52.037609269338589     50.634140705633612
H      49.682946983114647     52.081638728344828     50.945038065143507
H      51.674607175665798     50.091418004562534     50.268926811034326
H      50.189399441976704     50.735960937112345     50.631697292922020
H      49.721640623732291     50.739429478741648     48.738869928760430
H      48.696559651003732     49.196153888625858     50.173131413468440
H      49.401550639029558     49.494456049690726     50.222935475428486
H      51.509432731691028     50.453508073890696     49.599021748231600
H      50.656588288069308     50.565844460161117     49.789777431404922
H      48.655377525838368     49.987292418604540     51.171138681795100
H      48.379352652381023     51.834175313908126     50.269500484577684
H      49.267543703509951     51.613955746797714     49.475818961121895
H      48.444294468377592     52.432945593219436     50.098124948178480
H      49.704659643260506     48.937247187927319     50.712410342324731
H      48.005202648538820     49.047032951412483     51.101761671451840
H      48.351037201747964     50.721871927952705     51.319434745148655
H      47.717658718820189     48.871244850373884     50.385668057824894
H      48.064796338704227     49.392275123408282     49.806633866484646
