38
lj38_benchmark
H      50.000000000000000     50.000000000000000     50.000000000000000
H      50.175822131145793     49.918764739304756     50.695254897127271
H      49.636351816310572     49.507750608644272     50.886218652915872
H      50.246987346869915     50.504797099100330     51.049713126962580
H      50.776567527998509     50.948885171406971     51.438363843267780
H      49.143015936738507     48.979824009052983     50.759692000363252
H      49.945222153590628     50.082360853157205     49.430460096978372
H      51.149474782723850     51.349805554269885     51.084182843670561
H      50.399771545972470     49.946709419836729     49.271571993291580
H      49.880295749535193     49.042425440540796     50.396275236991613
H      51.831957918736855     51.201430240709868     51.039664781864467
H      51.196965546951176     50.505893569375054     51.497660185533704
H      49.399026079796542     48.270213738910442     50.725225860113568
H      49.510360925906291     49.774309957946215     49.047776962873087
H      49.963941021587203     49.009361585994668     50.951573101335043
H      48.387628355588561     48.907379855084386     50.738820360335161
H      50.734131091895883     51.798339119195902     51.053657345589848
H      48.985559470691754     48.990306189247789     51.432732188194620
H      48.155386779624052     49.335704044644899     51.128984163424612
H      50.492718981481879     51.359354317810180     50.644139320981942
H      51.668560671939105     50.708848348216598     50.888109561058151
H      51.444429949202394     50.756668082995482     50.163520218761725
H      50.125202203430362     48.246362096336235     50.950706951910412
H      48.964906923135892     49.754016033827796     48.563417515437685
H      50.365470411775213     51.068655840445885     50.162750908068155
H      51.771265167603794     50.493394034755902     51.722864867751603
H      50.165370580226067     52.030069761982531     50.550727664920608
H      48.567443951568130     50.247946064699960     48.494915739940559
H      50.543964312270347     48.736605173478203     50.112188763545596
H      52.025105341315211     50.321891488881327     52.183129987501268
H      50.559115854523156     50.022070850589962     51.576432755622079
H      50.635905940666532     50.077011973728496     50.494170341585637
H      50.845796726540662     48.810649833558614     50.705265802493116
H      50.602535521511413     50.593097284530366     52.014437280788698
H      51.021905132881244     50.897353934631454     52.568931149834860
H      49.930538420247117     49.177591049939743     49.372047383344125
H      51.348089514577339     50.925878387424397     52.176379323315508
H      50.115510745483689     48.287095260908586     49.996821465797765
