38
lj38_benchmark
H      50.000000000000000     50.000000000000000     50.000000000000000
H      49.692749586080481     49.663338356425861     49.401139655056369
H      50.083446026419821     50.405302015456286     49.463012385081740
H      49.055923943003940     49.584701113797536     49.118660272231146
H      48.869870111481831     50.086587491447929     49.113766341235959
H      48.559168051838526     49.448172613283454     49.316368413635587
H      48.125898579704760     50.239044376178086     48.987208955637321
H      48.560515060069243     50.111422756934509     49.783424060381243
H      47.617086507494413     50.436056898605621     48.449083843566768
H      50.229513476102383     50.111004165997585     50.711896629361974
H      48.244901635158115     50.747405878664949     49.189020121071614
H      48.936004813770325     50.004327604125116     50.104778777571752
H      49.299166386215362     50.413898923686787     50.168557665275593
H      48.867307302235943     49.235767444909129     50.335962600578590
H      49.345704380437340     49.365252382965060     50.118532490822687
H      49.584802188697154     50.948747589342972     49.795321830991355
H      48.773059926487129     49.429359461237205     48.555297356675659
H      49.629889924109001     50.404313708718135     49.129608359511195
H      50.069874768250820     49.618428589071343     50.583850805487138
H      49.190770568077404     49.937917283848265     48.143350807059981
H      48.565244387581650     49.000951710617286     50.712351170645057
H      49.774703773029366     48.988254083929228     49.824719533279506
H      48.559249540028354     49.130542641476957     51.303223932415925
H      48.461476329150472     48.635860789089890     51.726624645053107
H      48.739717306224769     49.147787855487813     52.098059840587375
H      47.528662377605393     50.481742510623640     49.334356068602034
H      50.606493361174806     50.510981064713654     50.955997583104406
H      49.317128649296556     51.561453579916225     49.548217491532178
H      49.168839264299280     50.598560589314339     48.283426041735240
H      50.324413625646287     50.912163973624750     50.580668877638026
H      48.104736385836254     48.401096562868140     51.240087714291178
H      46.781701847164136     50.461243261419156     49.194767816771872
H      49.680183145000427     51.244269594862381     49.185685637098402
H      48.617370563635362     49.594473757247144     51.557814072713029
H      48.258147579126323     49.669246335075414     50.590805741918516
H      48.972870770279812     50.579493894203537     48.751082896691500
H      49.293462292829354     48.805316331891078     49.686543425821341
H      49.678804739058585     50.898855172957369     48.474839633210884
