38
lj38_benchmark
H      50.000000000000000     50.000000000000000     50.000000000000000
H      50.221998381233121     49.907870180861259     49.378648953967328
H      50.385331320953362     49.523687351872717     49.908798989827268
H      49.592355516442865     49.726519965290869     50.636335991890263
H      49.628939580450563     49.552202187970096     51.351409943927550
H      50.138577004748399     50.284879147940252     50.829246830394787
H      48.830623780112404     49.715334606319352     50.432795820413730
H      48.305821325427203     50.121230125763496     50.171755452825757
H      50.836384946219127     49.910919619381787     49.195946357740091
H      49.772575572281632     49.515813054871344     49.667350063508501
H      49.089804649640833     49.438872713224683     49.639411540123454
H      49.378213961678910     49.013524937690519     51.215260294360334
H      51.574029389009389     50.010623985598137     48.906688958228294
H      48.472932237508317     49.384046722133334     49.839285627990137
H      49.790079933777740     50.303780638671412     50.431892259636449
H      50.362550067522676     50.716588013205616     51.059925735819391
H      50.447202530577449     49.916102982095993     50.545146386343113
H      48.898077646664746     48.911525043749982     51.818128107441453
H      48.607551057389607     48.623812433393404     49.813817984903558
H      51.152906330351612     49.697667464997728     49.570349989041361
H      49.256552006024869     50.657501280981649     50.096817162360132
H      47.746574504004535     50.236882980991560     50.165345050537638
H      50.225412923657998     51.146488188730913     50.629212919321454
H      49.002581260509388     49.540313372120288     51.171952506539675
H      51.615233177006402     50.333333252367865     49.589364983348013
H      50.026855100871778     48.904396648300022     51.468618869483997
H      49.545693829424607     50.636196661747817     49.616064855922694
H      50.520566458760911     49.193599737456005     52.003981774198337
H      49.884361034303268     48.398108133452411     51.293062001014455
H      48.717878002783884     48.308161123099872     51.434531037586339
H      52.039783278856127     50.506830687099679     49.286477751308652
H      47.738128720436670     50.776418736070497     49.740754110017349
H      48.209770648942346     50.579006573974738     49.966422947101300
H      48.128707398012835     49.690956719902204     50.779501834835123
H      48.834381643445553     48.431912728526015     52.202517685038210
H      47.452753079485134     51.270058697386716     49.287756543463253
H      50.777919917718847     49.589982439516483     51.179372518797607
H      49.292906933931228     50.254591891767994     49.065504948931263
