38
lj38_benchmark
H      50.000000000000000     50.000000000000000     50.000000000000000
H      49.642542436477640     49.573367986528680     50.164406758928450
H      49.415052613246566     49.113261676978176     50.567714361623239
H      49.468492822012749     49.972977487722048     50.804460566022371
H      49.726904822400776     50.173508385762958     51.221128695639962
H      49.486529563249356     49.956130332532339     49.530773379896772
H      50.519826551356637     49.749235109352838     49.675527409905143
H      50.771614373707031     49.496811741698920     50.112562241975638
H      50.024725623923480     50.747901045548737     50.768954744910062
H      50.042959596852015     50.276537203615760     51.886694094808924
H      48.975876807993878     49.637876486433441     50.836677143347536
H      51.083903263628649     50.011801274423888     50.601462610047747
H      50.309633607699425     51.136334783314162     51.149319096623493
H      49.414836340594093     50.442922052454747     50.118853910748697
H      50.806116720359221     50.827093859872164     51.379068108400084
H      49.424365579657653     50.170866852511296     52.337025865950238
H      49.519098948472205     50.990778443716295     50.657391040222421
H      50.633875467500019     51.373568187181419     51.794451541752949
H      50.553144355988614     50.493475372709874     51.038273321311095
H      50.697031071461389     52.026588948414400     51.936540093463243
H      50.931322334864667     51.891313051314555     52.623027592336911
H      50.828014657413249     51.525010989505148     53.156205748906487
H      48.795239571571159     49.840243243470098     52.238461977224496
H      51.619797603985411     51.655213287897340     52.586489773142397
H      49.440552894503725     49.968571222547887     51.695565759139029
H      50.557638950673812     52.137923000811831     53.230889708793271
H      50.901588385509136     51.061081446225622     50.791179035999541
H      49.877939074584326     50.919299928587556     51.814341688361644
H      49.591650013628197     49.324148864285583     51.999752338700006
H      48.624859565199039     50.007787041063622     50.563552267166635
H      49.236805183156449     49.404271447664371     51.317732282834662
H      50.998288015279414     49.411341473183775     49.644542418475361
H      48.452310466937895     50.289571181795587     50.104159876743196
H      50.158606309016037     51.534499802783756     51.652743233488955
H      51.451720054925993     49.340505149633017     49.152477192861511
H      50.502763123214436     50.696206756467660     51.976068406053813
H      51.437949484166353     50.606062851100546     50.519722005755526
H      48.875406155676508     50.014991027070714     49.865849484876250
