38
lj38_benchmark
H      50.000000000000000     50.000000000000000     50.000000000000000
H      49.908861108018854     49.973896387946986     49.258127516599714
H      50.233798215617220     49.426684542848278     50.246681363919492
H      49.435815638834676     49.838157016501498     48.786200965921260
H      49.481405606725176     49.933274863574738     50.374296884182293
H      50.315640162808506     49.462081509818205     49.399021109730270
H      50.501504525935509     48.847185601046043     49.065437075717178
H      50.657865680656542     48.779140013284710     50.393812690205408
H      49.318558152157728     49.796332534426462     48.071202091029328
H      50.733395408019412     48.125877536698695     49.983424171694374
H      49.223628562020004     49.495110561573874     50.376350270003627
H      49.732168877152162     50.106892940863553     50.908233531831563
H      50.207297351574411     50.485746408548223     51.057868462059858
H      50.604398092011387     50.079302906397849     51.318384912974658
H      50.923226871646392     48.899045159270152     49.760934678570898
H      50.726658153390218     49.709978719990261     50.522928230022792
H      49.931095805644027     48.481743965104869     49.341718658181918
H      49.113626782082420     49.210860999822039     48.314665065244903
H      49.741135114031223     49.145209567936362     50.327684000882321
H      48.703015756150286     49.361629114661326     47.997301346143189
H      49.990016167814836     49.066277471246146     50.964153393207148
H      50.178496144349531     49.824747559734199     48.830451729310191
H      49.504494269181357     48.674704379456685     49.568853655539719
H      51.022811882000973     50.078555747341206     50.167064521173231
H      50.747629284885967     49.252993118225724     51.091330004477761
H      51.028698222620200     49.849107070634261     51.697490345984811
H      51.416446894331472     49.423155390889022     51.451535595579813
H      48.945686395006788     49.052541815581172     49.025241132821662
H      50.483233774679228     50.030513231930762     49.710407954785133
H      49.875351610798937     50.309367280101007     51.641943374442597
H      50.828445987062622     49.991966999881967     52.146845115135818
H      49.626645180186848     50.276474146404112     48.106544899321754
H      48.469331897346009     48.718365008716724     48.341644091797875
H      49.090216363694573     50.201082821426155     49.252344164087944
H      51.051213022334643     50.517382013486127     49.931478300621400
H      49.061707351922010     50.673016675803368     48.216784593980613
H      50.604670774497990     49.413805494337794     52.303083378936464
H      50.106162019006923     50.877652655590460     48.311584699837816
