38
lj38_benchmark
H      50.000000000000000     50.000000000000000     50.000000000000000
H      49.353381696435591     49.753153915285019     49.788891387644647
H      49.214798714791471     49.466732391984962     50.232669318928480
H      49.454397414809542     50.316049838624600     49.287612370294447
H      49.632091929035397     49.449404551688346     49.295418254078861
H      48.758846603912041     49.471312374610676     49.668238683610177
H      48.763872100381938     49.380367776846022     50.426327085567024
H      48.108622098164744     49.086057915386476     50.133749524450153
H      49.746619843250386     49.598063670357689     50.609303712782243
H      50.378319291186628     49.324943832960521     50.817565909917363
H      48.272280933159244     49.363986213336560     51.013910096079201
H      49.760308839982599     48.938156039818047     50.555885929063450
H      48.283627005022424     48.375644976333518     50.127677939446151
H      48.024060124534280     49.445948044559458     50.505927963696607
H      50.488656060174364     50.447502108304306     50.324205274921056
H      48.253157714954497     49.838509295939964     51.382989050058768
H      49.845538291423537     48.779429648430195     51.164839559587470
H      50.720025774922533     49.243999455345026     50.298253059579757
H      48.102569103467324     50.521798606175558     51.142489620367748
H      49.792060263627754     48.212317921965813     51.035207289200720
H      50.796814823049317     48.967356911232216     51.390094983657022
H      50.105126550100778     50.905596239564723     50.721932332450884
H      50.559146426637412     48.035891138000899     51.086622778158393
H      48.125372049999079     48.838278129494142     51.270321714820675
H      48.664525129836846     48.973750196726968     49.128138064890081
H      48.166461323137966     48.944411921434430     50.722480161858904
H      50.788106045085136     48.812116125891613     50.743662858439961
H      49.917278432005979     51.427778345902233     50.589764677098010
H      50.002904836339106     52.172272940990254     50.433552350643772
H      47.761295229516016     50.742186473694993     50.845250050195268
H      50.156182954118279     50.756426980019299     50.086881892786131
H      51.379310760183841     49.376417996787886     50.669349110909948
H      51.392378692124744     48.593552251483153     50.796773080555830
H      49.724210742199212     52.240389921879476     49.833127843491788
H      50.614978160019632     51.261737810549690     50.488328298956567
H      50.931907521963019     48.836665454923164     51.912020981517344
H      50.861710043105880     48.578689210236099     52.351226662684070
H      49.890787578801188     47.548773273691381     51.402293099492155
