38
lj38_benchmark
H      50.000000000000000     50.000000000000000     50.000000000000000
H      50.344027622808426     50.303995780413480     49.473969283487840
H      50.263602754754601     50.907582787399356     49.520479438517519
H      50.947430318672396     50.742178383806760     49.404187521508540
H      49.830733642596925     50.958861877941800     50.072120882258531
H      50.650452428900216     49.662407922549590     49.823097944716125
H      50.675413621152238     51.235078749107267     49.171118932200621
H      49.686240282143046     51.420149765717987     50.615285169041357
H      49.323808447614233     51.301463655923399     49.859164860673488
H      50.236122213813424     49.404928770967409     49.724432920133836
H      49.742620876495081     50.869402305430903     48.940780526806790
H      50.523545680055065     51.523262642157711     49.810663243665338
H      50.374485493575747     51.337342246056309     50.776657297605347
H      49.498759828376080     51.901551032063281     49.356211706529905
H      50.666179916754444     51.483640160623757     48.488035911785857
H      49.148741421369515     50.728441553896999     48.427508491101626
H      48.844032963089766     51.759899651132436     49.941487624574911
H      51.175432051498888     51.583738922882084     50.178821263011933
H      51.258168321368423     51.544588962706008     49.109909777003722
H      49.777978128232952     51.916200568254318     50.088840492054203
H      50.081603054751433     51.682569514080562     51.349163512104035
H      50.942781241139059     51.724687911735657     50.979592122046483
H      51.010292185696372     51.808275237916753     49.474376836618610
H      49.471648459367032     50.596671978632848     50.105665219796080
H      48.744453527885774     50.868055690069077     48.794812258255988
H      51.646589273891585     52.071679559191679     49.924729434743654
H      50.958355017502235     50.919420603291442     48.251015184194095
H      51.267376516130973     50.347589472211908     49.713712680736691
H      50.492648053686189     52.314531975299822     50.804627454725733
H      51.215537192316276     49.537035637300271     49.308858620408387
H      50.939294008312572     52.327249875922000     49.381535548062821
H      50.713649399805490     50.480941321332423     48.692006906652999
H      49.858403083610845     52.643241631195345     50.939545190704806
H      50.627824768659387     49.229859617233217     50.355062012410627
H      50.146343570541802     50.203053704609324     50.588728399947065
H      52.044388886110859     51.810869656332038     49.481100922657653
H      50.601414425425304     49.739662641851304     50.894433918035816
H      49.513880148333648     52.372564933762789     50.532596514164410
