38
lj38_benchmark
H      50.000000000000000     50.000000000000000     50.000000000000000
H      49.585971436945009     49.575087072976508     50.170107801554202
H      49.112920522791008     49.141589540059073     50.209729231600178
H      48.523339731121162     49.263508432312847     50.550796838051276
H      48.589531919233409     48.765518604436629     50.045183502066507
H      48.825955128091195     49.060582635610579     49.683511134840479
H      48.496412255889112     49.243791867576299     51.095147055208528
H      48.879491459319155     48.105407396549019     49.834944870160392
H      49.810439182806888     49.830905906110729     49.365718381491341
H      48.568121093826555     49.913243419174343     50.844399913654435
H      49.764942492348219     49.148262930534507     49.825145734230567
H      48.182121301555327     48.465746109027066     50.061256901622805
H      48.827984253585335     48.646134661374859     50.476015771905892
H      48.665338510549070     47.410635418115312     49.782817720669115
H      49.262773083600628     47.507162305818348     50.114596711173824
H      49.966689901402020     50.567815724513508     49.950068740012874
H      48.378154228085684     47.729890932406903     50.199576671434237
H      49.756833601440292     50.283099604878927     48.938268781581492
H      49.898305677835047     49.739079784542028     50.837321646152766
H      49.182283940287356     49.792871888958295     51.060131525619759
H      49.545243841635696     47.070882533490938     49.698292926191556
H      50.491141108101573     50.173669974252022     49.467295134829939
H      49.457903024015835     48.698641332293384     49.249984096950776
H      49.015527740843133     50.433478109171816     51.172641485328569
H      47.931880605513435     48.261108453630527     50.760600395252034
H      47.747823279780533     47.983488761588134     50.124744941021113
H      49.202859810143771     48.064695689776414     48.890945346465791
H      49.132504397056309     49.302353317720730     51.380032904790852
H      49.181980264269747     48.855055237434286     48.818744381330553
H      50.746625351503219     49.593349492071908     49.143376766489226
H      47.115991063007066     47.604357809910461     50.405569813375841
H      50.499922692571843     50.612555540359885     49.762337167289132
H      49.580905558866590     49.689795925070392     51.684407746198673
H      49.464282945633336     50.936250673810740     51.200862640699640
H      51.081724207226195     49.671335468858437     48.681927425582757
H      48.706185250216592     50.530544546800606     51.767205152367957
H      49.660797249640353     48.071297544515090     48.282090925319125
H      50.574094674683096     49.047119808313276     49.557628070710550
