38
lj38_benchmark
H      50.000000000000000     50.000000000000000     50.000000000000000
H      50.523639659674473     49.992190593182784     50.159213170211032
H      51.144758451970773     50.362379815092922     49.849013205215371
H      49.974746694705139     50.036850048241469     49.393331439458827
H      49.681095228313836     49.600852688074873     49.748020398975896
H      50.798851230967898     50.547609256763323     49.165760254531158
H      49.373331575635753     50.096367353876282     49.848950775242692
H      49.301536109699846     50.216146477246262     49.234679977491389
H      49.121970530606639     49.618694402147625     49.945370949376453
H      50.939883590210727     50.114320686916400     50.639822266645936
H      49.705561984907007     49.257999764676320     50.208762863228046
H      51.023276145580496     50.597516755962111     50.840838363847972
H      50.578456476330373     50.624362961591672     49.634335775429349
H      50.646133450417786     49.977086659355621     51.087980307090312
H      49.563127548980660     49.685839952467141     48.996272973273207
H      50.481647108603624     51.101153458296004     51.126763264550661
H      48.665843512614281     50.119134519439520     50.045716023254151
H      49.450486643506203     49.850175455339716     50.481219180093220
H      50.295625632293230     50.687988695251811     51.402446375019238
H      51.090308148038694     50.316522376855048     51.598708269536665
H      51.529836389449272     49.982596441010202     50.984507326951466
H      49.410169170689237     48.806638338690853     50.647455791696537
H      50.784441474006250     49.556449773486598     51.631364791734455
H      48.722323266237261     50.635458821970332     49.670533920221224
H      49.865735202668262     48.676450884966449     50.174827350988416
H      50.909340750975375     51.070138603766594     50.339028910979515
H      51.442219114337249     51.291215258141328     50.723038202718605
H      49.761644912091256     48.786060933150587     49.429181521964374
H      49.277020729983910     49.777037529700586     51.234803070018870
H      51.058340291446100     51.243811190228847     51.098545187561946
H      50.166207554472763     51.649989018042618     51.195816062907404
H      49.452478618034483     51.357053609043994     51.425928957520554
H      51.485970591759504     49.435514216206300     51.598261982442139
H      49.319335154259988     48.344892000911877     49.009031454364063
H      50.010149927246538     48.866605796342739     51.036254463359683
H      48.794631479929365     48.153671077005811     49.070201314885338
H      48.174726133127820     50.580638076587292     50.056531940120550
H      50.435345512809931     50.695537432526670     51.979502624698917
