38
lj38_benchmark
H      50.000000000000000     50.000000000000000     50.000000000000000
H      50.220507321527649     50.417108756060877     49.421544483654266
H      50.255357233877398     49.411117255843628     49.690237754634452
H      50.645737754380377     50.065487604517621     49.379569485631116
H      49.638481438877584     50.602394627059311     49.459420329191992
H      50.787622420566514     49.275954329899690     50.038927334364210
H      50.815462160690352     50.404798310893732     48.886651767543228
H      49.693427000421430     50.098780104237321     50.534967382559522
H      49.760396297061078     50.909272702080493     50.117777907554228
H      50.203122219388426     51.305105754276767     50.257989640883039
H      50.893142136688382     49.525024425658330     50.518921758873041
H      50.647298439414058     48.954484586988933     50.987291056224990
H      50.061542064247412     49.218101851516174     50.108893731897737
H      49.579314491258991     51.633316085777615     50.392233193088501
H      50.878106403206409     48.332672723372490     51.182444820889600
H      51.306163097241416     50.194816353821508     49.314913205158888
H      51.139316660173513     50.164289893304598     48.579649199583329
H      49.683517689677345     49.226993867105463     49.154201314454809
H      49.400345664491752     51.514671186447103     51.149161780131166
H      50.126051812919144     52.003409332723727     50.361217355607813
H      50.656334661808067     48.514328618974581     51.878495268904970
H      50.598666400538825     48.813700643496922     49.980361996744179
H      49.476571311464546     50.192815267464987     49.972917172233146
H      49.404995039267618     49.561522016059861     50.175761728325611
H      50.111152768039020     52.304651834251992     50.800854725217746
H      51.083282007532866     49.643298843748973     49.226377642249901
H      50.207770720069668     49.071026870380457     49.173028702100055
H      50.438462504539800     50.098357019236374     50.227287970540310
H      51.370589588814262     50.431502227802383     48.218704568003702
H      49.025929244270273     51.723279097901383     50.514123500343210
H      49.675491892574406     52.781636398761108     51.206171147979454
H      49.258676217295758     49.028545801307111     50.282744418633506
H      51.043081514277382     48.761224046175812     50.757890638406593
H      48.803364220777986     49.736177962939927     50.032413403939110
H      50.166003614940657     48.889472786049964     48.392087888199192
H      48.985997022514297     51.053415966073011     51.053611599328427
H      49.528615341194552     48.513307607473557     50.820907223568241
H      50.472400642062304     52.384533242682465     50.234594020293905
