38
lj38_benchmark
H      50.000000000000000     50.000000000000000     50.000000000000000
H      49.942196158760254     50.546990033756160     50.240458115621401
H      49.291028793786623     50.480900440437665     49.797856592834805
H      49.656907325726195     50.827986923550618     49.535688730540961
H      49.224160608011928     50.917109309370446     50.237622564218590
H      49.467187765457737     50.180746111492240     50.747455580875588
H      49.269282715422570     51.097208724626043     50.869012787538892
H      50.414322219333755     49.932844311151513     50.418469693162933
H      49.274863862030848     50.879926934127205     51.582008592825964
H      50.892873741151462     50.278316427638671     49.875589035636750
H      49.114709057689851     50.297491665060235     51.872286534054908
H      49.918906189965909     50.337915613772012     51.084939563826559
H      50.543403232408913     49.489913925838906     51.002089460328357
H      48.717920721048927     51.120830094881278     51.775103100819933
H      48.937267854678332     50.223072097952453     50.825739713326570
H      49.112693283446475     49.721657864685476     50.446708072726992
H      48.370857539252050     51.127940969518569     51.071113362906573
H      47.874388173068404     51.103378637079189     50.954860320881359
H      49.581664292472333     51.512417962168968     49.214123064216778
H      50.522847245336514     49.130730328974380     50.618721090373867
H      49.953797077189762     50.668656063970353     51.829043534417202
H      50.893742836195329     49.526620308657229     50.311389108388418
H      48.536210405327203     50.518649444607831     50.362939033216470
H      50.802677809104679     49.198812729623945     49.878920063720805
H      50.813431740346005     48.745032925342450     51.186789368283193
H      47.744312071159634     51.125221318229514     50.366692603113520
H      49.933733158078944     51.326086920567128     52.091810119226508
H      48.102437459885550     51.075602561306454     51.953309599348280
H      49.395990395102352     51.321274630786213     52.312930309349959
H      50.966101259497179     48.522522285636249     50.572364353781474
H      50.336076697907508     51.050337973292059     51.473255837437669
H      49.240186596472000     50.236135338416368     49.297378168139318
H      47.924349725684792     50.754963607794252     49.789473070586581
H      51.364959539823595     50.529366351486175     49.614988403819638
H      50.385447367012439     48.138932939802700     51.498184318064787
H      51.297299667341974     47.907471313841548     50.751222127712353
H      49.210787562582560     48.976767534948848     50.675220044937952
H      47.355570874613775     50.580132175677775     50.239659289728095
