38
lj38_benchmark
H      50.000000000000000     50.000000000000000     50.000000000000000
H      50.462495139188107     50.064011151859887     50.461732620774598
H      49.856503705290457     50.225791381885571     50.495201845863541
H      49.431523151528765     49.835260794111086     49.892033713845400
H      49.883518646825607     49.944529228934407     49.452027738368656
H      49.840693904959942     49.356484813934351     50.055916269092300
H      50.493994815864525     48.937236788930335     50.114664009153238
H      50.555875640880522     49.803046583085418     51.058842292167434
H      49.969387955605775     48.762854694890677     49.692865402173496
H      49.289332705325890     48.466524797382206     49.633594813811413
H      50.757336483381181     50.664782782701423     50.712915045915118
H      49.717434151974935     48.607832821888060     49.018506031056347
H      50.433344896401096     51.228741717087871     50.412841221908003
H      49.744531393033839     48.980013088025885     48.603992022174609
H      51.260885215266939     50.766583300188479     50.765692953437082
H      49.039725842033576     48.316049789007501     49.111872521361605
H      51.041972952087207     49.339046872867172     49.878539655503218
H      49.037033757956017     47.686700494350731     48.883890110318163
H      50.754852155134472     51.616010284285153     50.025198260190059
H      50.799152202417687     51.336299215933714     49.467068491839740
H      49.273353462791192     48.501722988317105     50.235082368061470
H      48.753195866098480     48.282336536723456     50.071243334690735
H      49.244053872026960     48.949185919832807     49.014726708614262
H      48.621101351164484     47.835568029278882     50.568990432202298
H      50.545439214771093     51.432369195434539     50.880768795313557
H      51.040799933569971     51.019705347015744     51.146664201048004
H      51.060352202507957     52.097956837492596     50.336197513245295
H      51.277926979417536     51.992461041161370     51.093507409758217
H      49.519617480841610     50.142752046497904     49.053736809212552
H      51.698972290899100     49.608646169156579     49.851014476599424
H      48.494033578826880     48.832889487405772     48.798323470659561
H      51.379662491062980     50.570500252936419     50.013350366458759
H      47.956468749819031     47.746506111344821     50.184659050160654
H      49.985873464598512     49.712529506329659     51.502443952993325
H      48.158460409725272     48.134549996276704     48.764925281587331
H      50.299945573035650     49.295419708837464     49.446356222947287
H      50.389336011673187     50.907245007350234     49.891750556946064
H      48.934611652539502     49.362688666602992     48.861767407178625
