38
lj38_benchmark
H      50.000000000000000     50.000000000000000     50.000000000000000
H      50.017587966406687     50.731996391127531     50.219687901610840
H      50.488381973782261     49.833912102079047     50.566369397301308
H      50.760773135398587     50.065600533992452     50.975591941774020
H      51.234586106627610     49.674303824469348     51.014209049493843
H      50.781394789305509     50.352904154108302     51.596138483399791
H      50.868904525081653     51.054953880735923     51.836868692419479
H      49.544070222660267     51.225910558204355     50.629699385349682
H      50.904126672203390     50.261688861120433     50.510909829448487
H      51.391736775112676     50.703878012334243     52.303680433852620
H      49.342017950771307     50.704810087622192     49.986517710262959
H      50.390561614075558     50.009252749281231     51.923739829660889
H      50.325053898707900     49.990990134684907     51.261518404746823
H      51.018185072504252     51.400987865777424     52.171281899952554
H      51.173506845128223     51.794683734793928     51.677137935928720
H      50.478534821029783     51.248225511130691     52.621133906360683
H      48.904004832124485     51.196691898338074     50.038790722232129
H      49.564049428153155     51.551907477067410     51.310213569573776
H      51.223718913314116     50.774566195986125     51.189118457712070
H      50.726435723022192     51.755236182031076     52.609834836745136
H      49.878054612530832     51.394558718645065     52.169184987484705
H      51.913196506311863     49.631605200164195     51.042409397907392
H      49.901374236215915     50.701716765725429     52.069519033846007
H      51.134861017064125     52.352972883992706     52.825496132108782
H      51.226685122216466     50.134457041513365     51.534827345594110
H      50.960614524529632     51.030375819769517     52.766995610816643
H      49.559012032549390     51.798561832179011     52.142646884723355
H      51.478672177636781     50.094257961000544     52.515700264648565
H      51.209223540397126     49.139694764205842     50.670550774944410
H      50.297463600030682     50.716324791151401     51.171150800651830
H      49.759986216139268     50.757622747976086     52.611074789412754
H      51.174932199446467     52.551017506755002     51.752593845863970
H      50.290078031891682     51.967094739352504     51.820778884307302
H      51.867034071002976     48.880988931848371     50.877413585012597
H      51.454610977051438     51.814677276411373     53.120085085817550
H      52.504666934847826     48.471684572665900     51.054739727123774
H      51.581727454651670     50.549664341511672     52.953383432623767
H      49.316854105750778     50.864827941986363     51.373201395714908
