38
lj38_benchmark
H      50.000000000000000     50.000000000000000     50.000000000000000
H      49.353102749052205     50.424929659113523     49.899923007099829
H      49.046806766943092     50.326616568628523     50.525579780352494
H      49.563789183212570     49.450311177824737     49.800382476514358
H      49.771336456037368     48.866139979003762     50.290535717091906
H      49.517663127369481     48.934826555455835     49.523654015005036
H      48.788986820564908     49.856308760833464     50.084875687129490
H      49.033358116051197     48.780649438152182     49.273351201960899
H      49.352419689616653     48.534614544740393     50.395461696720524
H      48.866699895876209     50.667187638502249     50.858552769366099
H      50.386494244195880     48.609738317478552     50.277580669465280
H      49.644270124726710     48.384475081902217     49.592747383017020
H      48.524303463448035     50.581144029083944     50.028733574516409
H      50.055443020275341     50.102959930718356     49.331916586100689
H      50.062429996765239     49.222830966181078     50.593869402503827
H      49.003314022903119     51.193421475979392     51.277748174521129
H      48.925625393187865     48.852953163704534     50.888482690326661
H      48.196682755524499     50.207210810253969     49.413876626875265
H      50.444357158089502     49.765506678390523     49.125061364780429
H      49.166468653321914     48.906304088560844     50.069439370642414
H      50.637011008333523     50.329976835140201     48.939201228852490
H      48.903034757992309     50.380523797118911     49.634781844468357
H      49.340775483302416     51.803153983677149     51.658596862551221
H      50.263396409329040     50.587397605419710     50.214577792202334
H      48.982635316493699     48.085358612613852     49.175999577179944
H      47.942376715575364     49.864030975999007     50.032641123882470
H      50.362617449971268     50.732449885847657     48.315692048370991
H      48.441500799465075     47.701852880693146     48.978453571975415
H      48.985713651739459     51.162825549581676     50.224686877371035
H      51.025826315683915     49.356564546160712     48.808090733089898
H      49.773654169465793     50.793068412568083     50.033286674865650
H      50.216940689960083     50.280342415397904     48.508059154069656
H      50.992551869006768     50.974599158743850     48.930117208348797
H      49.888938374555231     51.745799032537079     51.460136864028726
H      48.514962992471283     49.562904094442878     50.426925588805545
H      50.918613450842585     50.306876009823313     49.622321712689754
H      48.902758310859085     51.182262983928915     49.478431609333683
H      48.066929712009532     49.496100190878188     49.682041199642207
