38
lj38_benchmark
H      50.000000000000000     50.000000000000000     50.000000000000000
H      50.046856909631245     49.925641841262824     50.677550531263279
H      50.132438502979547     50.492855839264543     49.789408750647567
H      50.187324633129933     49.343817010677725     50.299386527490235
H      50.168176126044116     50.167443319268735     49.223950692500743
H      49.969807183785960     51.010797600887607     49.750891139368285
H      50.589841199170991     49.928865556997074     50.266874656633448
H      49.312534358721948     49.907488606498340     50.710397273999632
H      48.927090304705871     49.718542344766924     51.000836055712753
H      48.706290831433385     50.142516541340513     50.856063802201987
H      50.762511116286618     48.866325544319835     50.384854423123464
H      50.152139120500578     51.107616758356016     49.199126811418516
H      49.213360867906175     50.198456218972794     51.341485730210252
H      50.564985974645374     51.107402167826656     49.981226717587560
H      50.566335362652651     49.581397490315894     48.963163428696888
H      50.818114939521600     50.063004436149185     49.010758010803201
H      50.600449157975625     49.345987423588888     49.566258933185289
H      50.909343193057900     49.983464197344006     49.585397800775091
H      50.992634820013549     49.071753976725702     50.877861070267571
H      49.839211662218489     51.113603175174617     50.500235948814129
H      49.878072274893455     51.676255572975649     49.328045813955903
H      48.625823329302477     50.246927515101738     50.106617228136301
H      50.849810459603766     48.110642219009740     50.358900930640417
H      51.441290724136095     50.360172397312880     49.374388889597839
H      49.222688595724328     49.265071238741733     51.414566708519175
H      49.563533103101456     51.280762491884857     48.787246637064413
H      51.528724002428213     48.814482024555680     50.798062908962876
H      50.289328833605460     51.563660995683904     50.066260981900221
H      50.554915378961674     47.639454963360301     50.936242593567584
H      50.910770208438613     51.604181643380002     49.838651782925183
H      49.051135190734783     49.887695136655253     51.994806895902791
H      50.416445871024500     47.358412729456063     50.264819719429170
H      49.872961295879371     47.269144984783580     51.129124996862217
H      49.152975006808994     49.003575993133211     51.968542513478397
H      50.618726464458263     49.890663843605786     51.031669728010428
H      49.612401448649322     51.251796188524487     48.084765752186151
H      49.442676642516133     50.311881080359221     52.289974536651876
H      49.789417912776216     46.548685634496131     50.816693634026237
