38
lj38_benchmark
H      50.000000000000000     50.000000000000000     50.000000000000000
H      50.709116883035357     50.321339736401079     50.187132142777806
H      50.995507795325800     50.886405162915558     50.400261649842292
H      50.739651561941834     50.341287254834626     50.845184608598579
H      49.820597280936191     50.591326210144366     49.584588427384574
H      50.686069344179316     49.748975472417392     51.287304433583898
H      49.268227372678560     50.127541254946166     49.776215684565315
H      49.931444271226759     51.028393154189985     49.152328265959262
H      51.305363850689673     49.693918697044680     51.691776946063428
H      49.424096546062010     51.391731768291393     48.922581738677785
H      49.999249590810749     49.946485389171905     51.346068078233394
H      49.415887715632827     50.281852727133092     51.073513784599534
H      49.656453819596202     51.463378373938923     48.227522539790669
H      49.999909811760858     50.354777659868361     50.442888049771128
H      48.981241248538758     51.154700345622445     49.053466331188631
H      49.948116118329025     49.290559786409986     50.074738040697198
H      51.998597611999841     49.699452749765371     51.421138990892061
H      48.784518145339028     49.765072760373783     50.192332445187375
H      49.218276605353147     51.234926990133488     48.147520928964283
H      49.034134548590707     49.871396547994081     49.232877097036074
H      50.327600219094073     48.977540085144646     50.540743851497872
H      50.339167997054112     50.738610934029708     51.317200786905786
H      48.927425606915435     49.804301976520236     51.240075783049001
H      50.129548404111119     49.818364442530239     49.243434057512097
H      48.661538647305001     49.471914786410956     49.035063786173197
H      50.164624634966536     48.448369033789213     51.088605200613188
H      48.769108209903905     51.290138406258670     47.611382653240135
H      48.825782842389550     50.432896127934825     50.278354960749532
H      50.748826183233255     50.397228081262710     49.519187855921366
H      50.481229387477370     49.898977242478388     49.610219304148032
H      50.928491579816104     49.654728842853935     50.696141658458558
H      52.147120736239529     49.857927489758431     50.909320419343501
H      49.841432187775936     51.669907809591336     49.196706119677032
H      51.431068865906298     50.326939652328974     51.325052254341593
H      50.379472387154216     49.078052098782173     49.747861522582070
H      52.489193302147186     49.531100120869127     51.496162785843801
H      49.522034794196024     50.709691560647137     51.503182349646181
H      50.959098528467102     50.164176925096868     48.996551029893432
