38
lj38_benchmark
H      50.000000000000000     50.000000000000000     50.000000000000000
H      49.902828783938695     50.534177477895071     49.939870151893608
H      49.466590213768271     51.135947404036912     50.038288113751648
H      49.102215180235945     51.278067856684991     50.598241138415986
H      49.376670016934142     49.986595012839715     49.880462302304529
H      49.611965182029699     49.620117548293351     50.468094467458144
H      50.085656028994414     49.513847193057913     50.828440782617726
H      49.179857914187131     49.686866786250931     51.122632573507204
H      50.725129927632679     49.341905575152808     51.021393957347911
H      50.698829424797395     50.588653405825347     49.946593235306608
H      50.251883080704644     48.964913874549765     50.721525802664111
H      49.648009455264216     49.944710812327308     49.356210129096610
H      50.420530888037455     50.236888775484516     50.941135144703544
H      50.909053893786840     49.884900446119794     51.517565949443473
H      49.585034386376677     49.622325397632387     51.430621296662423
H      49.066987123129337     50.817447581595530     49.624790072401211
H      49.912178983333604     49.297580433038817     49.646999042989286
H      48.905666553475349     49.872227357300233     50.360962146578153
H      49.203239293166973     50.180125795435139     48.984532611422864
H      51.017349882655481     49.461329889956183     51.965493355385760
H      48.433589647131107     50.234435035305410     50.887889153490548
H      49.885712868502026     48.796112609524506     49.890508107942154
H      48.372254094629746     50.918763079680559     51.128289107285696
H      48.868858733717914     49.333737872368481     49.899512734185478
H      51.245507491542710     48.852021201457688     50.908431824442644
H      49.370073947303510     48.978559310694955     49.337919865351289
H      49.709201959253903     49.561269830349950     48.860031264324618
H      48.932610668437974     50.525234537677342     50.960090518733253
H      49.961927960497427     48.718768361975364     51.163491736932166
H      49.325255372570624     49.306775089008447     48.355091210099438
H      50.332991236090038     49.078649886659669     48.839496601289120
H      51.487000162395731     49.377085536492196     51.708513346453259
H      47.869561301400800     49.792671756451810     50.654163040102091
H      49.543588925727846     48.294853892875103     51.150243313883017
H      49.536110986029222     48.391172065146264     50.219807405994132
H      48.807467869687343     50.141025162703407     51.508043425900937
H      48.793502585065717     48.591951797658595     49.241509625814942
H      51.934504586021923     49.576401593367045     52.190071450551855
