38
lj38_benchmark
H      50.000000000000000     50.000000000000000     50.000000000000000
H      50.129027832613396     50.466924143987796     49.872277064693044
H      50.741408770709782     50.326879889533096     49.570866912318309
H      50.429851571239162     50.035971308858606     49.187671413045486
H      50.612596975164294     50.780176268933488     49.298154111346761
H      50.352192019739981     49.455054374217923     50.055614973512753
H      50.511867424880379     49.764394739481993     50.556620132567410
H      51.509544412022208     50.397496335937234     49.449816227755164
H      50.226763807772393     50.843906842857159     48.676359454575689
H      50.875719377022790     50.596982813503367     48.850317041874305
H      50.536565146346469     50.839581530469637     48.080598262575265
H      51.129280607455087     50.582596793015284     47.919854026318667
H      50.533458920587918     51.555397903477989     47.908696020738411
H      51.429328032305364     50.291656345709669     50.079835019106341
H      51.759265570900510     50.705039837609448     50.029847317093427
H      49.905556456260058     50.344225657207389     50.606589557318692
H      49.516475950281936     51.051697458166373     48.611987848611086
H      49.077550552261904     51.354157755512574     48.793809492355940
H      50.537840614041016     50.036190554222216     51.115186771151059
H      49.061683572252761     50.865630602134345     48.193248365604042
H      50.292402410943332     50.306856749091367     48.537014877079194
H      49.944764351146141     51.654950390444156     48.334895037428716
H      49.938959425742759     50.518301121511712     49.099115847424848
H      51.661043287682290     51.177069549253474     47.939577575096763
H      49.973198684124277     51.758287164507408     47.604655421066944
H      49.920566936322800     50.967935309389539     50.958946737048343
H      50.972448456982860     49.533531192971850     49.611084085516538
H      50.240960019965463     51.447336810372946     49.136965142923188
H      50.367629479447487     52.214227254397791     49.222465480965084
H      51.925984231541953     50.413380641202529     48.798499653724690
H      50.192487553570842     51.196066380220898     47.802264629346816
H      51.778154678531543     50.863924870240893     47.264172634307670
H      50.952818612127906     51.533610801736884     47.492327224536311
H      49.632953196005822     50.362925414988531     51.398302450017638
H      49.430343806884920     50.660397772189583     50.583374568582421
H      50.621200003432406     49.887390338658385     48.721536784783730
H      49.963282205467301     49.464580614330437     50.571596062862824
H      50.032561302344632     51.718802821577007     46.808141365713603
