38
lj38_benchmark
H      50.000000000000000     50.000000000000000     50.000000000000000
H      49.364451007227139     49.659044065766764     49.667493777070781
H      49.667853541114063     49.510703852091858     50.530262927687602
H      49.528065789660438     49.990892928297917     50.413240173141666
H      48.877422211775617     50.440267899678787     50.517386022737618
H      49.198967291163655     48.937526453668987     50.798285993734702
H      49.983397999275226     49.355309852876644     50.964744757549497
H      50.351625887045671     49.482736236419299     51.409781981402482
H      48.855113410148270     49.353670530986278     49.710854727932443
H      50.716193283168991     50.119107695410662     51.521238963249914
H      48.465460958708618     50.612642660844934     49.895133957532181
H      49.577401411557219     49.088236557778771     49.552110444058037
H      50.061244532313104     49.194134943964094     49.301394331531860
H      49.916599061506560     48.620033596733371     48.866553273467773
H      49.733219089093382     49.740708835355250     51.636424759903917
H      51.126138998684922     49.804478701333764     51.434057157289416
H      48.737617664956829     50.723483792115864     49.257212456726158
H      50.380854938210632     49.415165472158108     50.607588969480453
H      48.854550635825426     49.078720577585699     50.418240538752869
H      49.334464456698242     49.860140920316937     51.002747843325878
H      48.416823192346214     49.742692262317732     49.516298856872695
H      48.409251945967021     49.464851440281485     49.090072413117795
H      47.782005141867934     49.094444301448860     49.079826980261487
H      48.695971150646116     50.850240646159776     51.125686797424912
H      50.710404536345010     50.404139772312938     51.982805656553765
H      48.030693098526655     50.955268424128306     49.100874701292611
H      49.772525742685865     48.898313443751533     50.168055788711158
H      50.483024437154455     48.652991049753695     50.120762468092416
H      51.136170691835709     51.043601990476169     52.161338858657437
H      51.735751739788014     50.094812681622734     51.506569063631538
H      48.276181221857030     51.134663632821997     48.368195231518172
H      50.491949024019448     49.357822167215843     49.673267585770070
H      50.989369667598694     48.990816458434104     49.951212505135743
H      48.018409476215766     51.041131542795227     49.771921919994355
H      48.749961900488948     51.019136930937073     51.729044900523000
H      51.477759747385676     50.047192122156673     52.187250519520155
H      50.183381053765956     48.394771256812753     49.495389063769686
H      47.866535153313265     49.755795858276919     49.040668762094569
