38
lj38_benchmark
H      50.000000000000000     50.000000000000000     50.000000000000000
H      50.167698400913935     49.965125331964792     50.692901539630796
H      49.700771803876052     50.332793850296035     49.758384762060516
H      49.954756865799737     50.689410711720605     50.853138071584397
H      49.445514532221210     51.170685555547330     50.788219972581537
H      50.675348573237663     49.656990792044674     50.549899199373058
H      50.117566974166749     49.213728481126552     50.578891348638578
H      50.513269826940679     50.750878318629965     51.114268542933566
H      50.964101528370662     50.936741738030669     50.542897786082307
H      50.681553710464783     50.230903118588095     50.796550788506394
H      49.106178688793506     50.513936625868304     50.803799724339846
H      51.194820110727363     50.375605905399311     50.328515305362380
H      50.583760330317013     50.537246141714455     49.956501383549771
H      49.271886057485361     49.968866785779916     49.645011432145779
H      50.037990133811363     50.927203922003905     49.848562425232586
H      51.682390967991083     51.169064915830283     50.372206800317407
H      48.427850519369613     50.518011876385053     50.942507631949624
H      48.564612444746949     51.084958405026093     51.299301798495378
H      50.397522428319441     51.481135015371592     50.300046702710695
H      50.237506943389498     49.723818199325763     49.292094889762083
H      48.103978062703881     50.045231524051104     51.271345492259378
H      50.319734981151839     51.275554955577398     51.221106967581640
H      49.640602677886605     49.839232752258539     50.789580893900357
H      47.431817756178226     50.255944429832638     51.256513284121560
H      48.624497779523125     49.604670330135328     49.440490667243445
H      50.817816487828708     49.688223963652931     49.579810002796762
H      52.001130331019688     51.010415844956803     49.792390391913557
H      52.709896181796488     51.249234223857975     49.791260081041628
H      49.503274476177012     49.712625409208407     51.271318368561566
H      49.336008548799995     49.299587791708049     49.882878595938010
H      52.585009883539712     51.481849338587665     49.251806345740690
H      50.114270752291283     50.537159267659291     49.405143524230013
H      46.823505228354890     50.322560663571394     51.661020362718205
H      49.959705662575097     49.069658964019261     50.011994547036934
H      48.333415563379916     49.333292321908424     51.394555441854251
H      48.766565168637584     48.884409815439440     51.620560133941801
H      47.492920356207016     50.184093630360643     50.678474352607218
H      49.051290512438747     50.357072086917270     49.077103686213377
