38
lj38_benchmark
H      50.000000000000000     50.000000000000000     50.000000000000000
H      49.332162044342695     49.841764934364221     49.968111381558742
H      49.821744210618427     50.639356681732892     50.188230977216371
H      49.159689443571637     50.282945314179329     49.495778497944862
H      50.177430514157066     50.705735667558720     49.634527503315852
H      49.368714144542444     51.291283857963428     50.322761270085621
H      48.840308511483741     51.250677235872743     50.505528350421017
H      49.090331650225764     50.472653838694285     50.351618432372433
H      49.333979848647743     51.836431905814386     49.733122013518177
H      48.350449887834195     51.006385707503696     50.107922225380790
H      48.927706100390452     49.763532269020786     50.262941921717136
H      49.627818278844508     49.423167865223796     50.438511181144065
H      48.328821763216837     51.295743519924883     50.816456506419691
H      50.646256872080308     50.758033679025289     50.031972100876018
H      48.614188106068717     50.529370644209962     49.036089250392671
H      47.879218815828921     50.876589698551740     50.772002124187289
H      49.826550386673773     51.948848786046021     50.356677496184993
H      50.891240384614846     50.532961661558602     50.682639526823749
H      49.739820185078280     52.687725604481486     50.476661818524384
H      49.441283348504285     51.678133945967566     50.733810508353663
H      49.676176971721596     52.235647429310951     49.360270157964678
H      49.238552934512292     49.338924345154851     49.448941038952135
H      49.370030711871976     49.610467121953199     48.806524301122707
H      49.687063788433974     50.121136386807933     49.225023153135929
H      49.343567013149524     53.339001811347828     50.565176199453155
H      48.169632282792875     51.705684625082753     50.062803376341243
H      50.115778891205636     48.899335293009919     50.576007318054735
H      49.134615497742459     51.267790603325928     49.385827436770803
H      48.711230191433074     50.981732556132187     48.705077005318635
H      49.134862930882733     52.235043186151401     49.451042173181321
H      49.651690437463053     50.428480485959142     48.480997447826844
H      48.153827174205517     52.182703633814853     50.482986168268567
H      47.542097334924847     51.789055334830756     50.129939015608223
H      48.692996073056825     51.301398141046796     48.221233580853962
H      49.809873767957029     50.664682806522634     47.866319583091496
H      50.491283982298100     52.700643002777866     50.765103804324575
H      50.182086698352670     49.623736242688764     48.969422863715721
H      48.976286455413245     49.296166421975755     48.354861023570564
