38
lj38_benchmark
H      50.000000000000000     50.000000000000000     50.000000000000000
H      50.059665295043843     50.328911648062579     50.516229393849812
H      50.320484766734054     50.976195467963798     50.306610964546095
H      49.913970149227588     50.634524088444230     49.845355851096130
H      49.796759362795058     49.281731352384028     50.186354246981551
H      49.706315959896479     50.034026701536362     49.448971928088469
H      50.093717849939807     51.707759147786781     50.159995971701633
H      50.006090372637459     49.321447195797816     49.523140347265553
H      50.358393860074251     49.166113110471962     50.479142972415808
H      51.035339173947207     49.444212708197860     50.184704682938971
H      49.415693705963655     50.647528317731748     50.343696415899601
H      48.697715640079366     50.681195825585000     50.008177722570466
H      50.628116855366429     49.553311375589701     49.095807722492601
H      50.924709866967156     50.072902049924636     50.054758096080505
H      49.039753100239317     49.320508750390928     50.223943630689661
H      51.345222927817105     49.685198147189979     49.032710457099064
H      49.453968698938660     49.547645131974228     50.576566150886968
H      50.554898402059408     51.936669954086213     50.180934314604094
H      48.252420199199499     51.156835323227959     50.062529683551553
H      49.101959922720205     49.436117408908167     50.977104788456941
H      49.442262237010461     52.142820164032507     50.285973492080387
H      49.529851479802318     51.596090169798536     49.688416477701416
H      50.866077632620090     49.672930345448613     49.728972473756684
H      49.704343363145384     50.528191726427899     51.066877164747694
H      49.823174934277503     52.618702527314859     49.787179826413301
H      47.590812165077899     51.527488267099635     50.321078917922861
H      50.490824472440238     48.719411802516674     49.404075850267020
H      48.619971009421988     50.034143107443043     50.026128583541841
H      51.933420887700926     49.731632276749458     49.197905850726336
H      49.915496595792547     49.082027697103683     50.911646926956074
H      49.415467777549317     50.457275169439257     48.962575701005569
H      49.146388146249997     49.775897939494968     48.757748543930639
H      48.719701319459261     48.989616167644279     51.097587485985947
H      50.847178139225015     49.344868715909207     48.461044238582289
H      51.782864986089542     49.964377198586931     49.863717261018401
H      48.759914832682881     49.269072771111929     48.626593936197999
H      47.449218656868119     52.153462660403036     50.366518502174848
H      48.846801526625853     51.036742161407382     50.612106663581343
