38
lj38_benchmark
H      50.000000000000000     50.000000000000000     50.000000000000000
H      50.034567353401371     50.745029484119371     49.768305498905320
H      49.793500550221012     49.831805683473455     49.399010450309866
H      50.035939009727898     50.559285354201968     49.257468796940444
H      49.967455842105089     50.461911950288759     50.520218968133747
H      49.304312438579245     50.297002425144100     49.630474986789800
H      49.530527670739311     49.987408006877196     48.968351684709226
H      49.289955577615260     50.579181302933350     50.140883773112890
H      49.729533482797379     50.305242373459649     48.306584105856174
H      49.979900693495438     51.496470481742463     50.026891974068967
H      50.533598574659344     50.728955955035090     50.218563889231518
H      50.655149479035835     51.208895341364375     49.833735044589169
H      49.125704094804270     50.596694361027787     48.103351185294571
H      49.234423619308657     49.467252670530328     48.751892809190089
H      49.670810405640523     50.224461669625590     51.109822550544969
H      48.667352313330092     50.797202378563838     49.978384184309405
H      49.970065000659048     52.035625025667088     49.754575021241450
H      48.947382938704209     49.886149026821080     49.170999090543795
H      49.056401068404554     49.963455243375606     50.503918041170778
H      48.569216116622947     49.935091791257328     51.080310215400843
H      49.627156860491723     51.165323816088829     48.331831276986151
H      49.081597766319341     50.283284816075493     51.077175418451333
H      49.786435891380826     51.901377843013073     49.231391217612824
H      48.106857635532108     50.854738827029102     50.253167332739274
H      48.909887227319828     50.871484229825498     50.631663467108709
H      48.917203939121869     51.392870745332793     48.149812717403300
H      49.733003578998307     49.164182944121634     48.691759939015618
H      49.729168940763351     49.971427016921361     51.638307670296662
H      48.661193929587782     49.429776553901554     48.262335600679236
H      50.957378617640018     51.692461390536323     50.118034462848598
H      48.057050691424891     50.160879429219619     50.808953592768880
H      49.426939733055505     50.885298450458208     51.460260857742938
H      50.816250349170851     50.049885874356981     50.193943077451621
H      48.791718002395861     48.880881865235708     48.160612630848483
H      50.620339305652031     50.967186959075022     49.215643045982269
H      49.989371017333546     51.213320458257812     50.775130733400367
H      50.287745265934028     49.196161756906776     48.734950580148173
H      50.220029450481803     49.371994887183206     51.541804152271297
