38
lj38_benchmark
H      50.000000000000000     50.000000000000000     50.000000000000000
H      50.627007487285866     50.091098184910877     49.867037265555240
H      50.469271256670069     49.374730860721563     49.741585534198883
H      51.409291945077015     50.166692368957762     49.871706703535750
H      49.751721530036846     50.498749623721189     50.497392235438724
H      49.927029086769963     51.033194246339711     50.771972134128369
H      51.507243183619885     50.457038437144206     49.285713202392905
H      50.168904697608873     48.910947224118189     49.717679218970027
H      51.665596433811103     49.699235129351877     50.128555916332225
H      49.634489838813558     49.418091712397647     49.439029522323054
H      52.228345933773191     49.383029597633794     50.333320016646333
H      50.518423145720178     50.873995640384159     50.016615226690099
H      49.905411006035038     49.791194470455807     50.499068288500787
H      50.262895856902759     49.104456496507289     48.988255740570743
H      49.812705145905134     48.726118786598050     50.209976373678231
H      50.207769050043893     49.567185845807884     48.410552073235770
H      49.239862550879259     48.867933003594217     49.537480597198659
H      48.935974735430463     48.464883667022193     49.233630907003032
H      50.898123768186387     49.882618745839714     48.228989518426779
H      48.400901067100598     48.711930442008864     49.417821782220877
H      51.295425465576415     51.059834412468270     48.936851780440250
H      50.560966962464988     48.929689005397677     50.165601103126413
H      52.131395251223175     50.378583781941245     50.015526945550810
H      52.568921439702116     50.213844917905440     50.387409478201256
H      48.967741431540119     47.984214827470588     48.918976310193251
H      48.467861908834145     48.477356932367414     48.910391692295512
H      50.907607084829806     51.567285480123573     49.951164416889192
H      51.746572966059162     51.276180647019380     49.454100514479229
H      51.111504936999864     50.722757196285286     50.071096928506144
H      50.389404954563396     48.154004507057849     50.288582509228213
H      51.162256120800102     52.155967336074710     49.529426838292572
H      48.955840612986478     47.420312609178431     49.234902822861322
H      50.525152466451715     51.974840981557804     49.704325053218056
H      49.824188359513457     51.706373030156058     49.757811068309849
H      50.017798965799464     51.085499064234327     50.198031862005564
H      49.196082943755357     46.832099579379268     49.338764264977243
H      51.057395057810275     49.188129537446144     48.382327837576931
H      47.928252267147805     48.451107303302244     49.183398694701275
