38
lj38_benchmark
H      50.000000000000000     50.000000000000000     50.000000000000000
H      49.319592503550211     49.898915144725677     49.580587874436013
H      49.922521592666023     50.189133595006929     50.531641317360858
H      50.518601144341694     50.372134628544686     49.780067795493451
H      50.818026436922054     50.332428762508727     50.465034789325784
H      50.587764979500108     51.083156101321386     49.608588710437381
H      49.337241173521328     49.416797413202055     49.398369432411215
H      50.558956689227635     49.984301869732406     51.012506347236048
H      50.730806814394136     51.256353449641963     50.062737504950697
H      50.830439939650951     50.938552588500677     48.944680261361121
H      50.991354271717960     50.543274778631826     49.351325098554810
H      49.597583845089964     50.466784455853208     51.038448437843208
H      51.172557486140619     50.984965240674278     50.498800201284894
H      50.004407555440061     51.156055771937112     49.100329123313870
H      49.186679980369696     49.958009592069125     50.549065874514866
H      51.491258109448417     50.260307356865454     50.508586621279143
H      49.867145546634191     50.984664954126245     49.931160392042010
H      51.532064107697195     50.949329382280318     49.390671970608530
H      50.850972031283277     50.597012174301270     51.181750358454451
H      48.984818623282052     49.406018238539872     48.777059658212075
H      50.127779177418503     50.065762619911716     51.647392771200558
H      50.360905203214116     49.774929863933551     49.616667382495464
H      51.260174428659340     51.634520851138433     49.340490762235774
H      50.522585709295562     50.487238446374292     48.920870370651478
H      51.061948167830813     51.535094854096599     50.645936722579158
H      49.288997864184083     49.380093905417695     48.074810583345510
H      51.131155232546334     51.980370947305175     48.950405433954849
H      49.703210142018939     49.163986446532000     47.635392392253273
H      48.972684313789912     50.344762711519877     50.190299375172287
H      52.025299615122350     50.962763931500703     49.717310636178119
H      49.058720468252602     49.216704756773289     47.619206527738029
H      49.062384793431413     48.823649011405053     48.469220742460379
H      51.992000766576346     49.844357475205953     50.249585068867169
H      52.021713318894150     51.315122514678031     50.105085952342328
H      48.766653712026681     50.744421579265456     49.892565317773446
H      49.059905185299378     50.148253594398518     49.178518721244984
H      50.934738237728411     52.165527634222684     50.774120560504642
H      50.526424888646616     49.716152147351004     52.011749332573523
