38
lj38_benchmark
H      50.000000000000000     50.000000000000000     50.000000000000000
H      50.579275589991504     49.931349281528085     49.988741282049254
H      49.769685254109120     50.108970813847193     50.748394472836509
H      49.267440941876131     49.621776168337760     50.491660699901693
H      49.848750769178373     49.420988642912974     50.030443011514542
H      49.107631076620386     50.246178840014210     50.225943299907811
H      50.393419107310933     50.681116052973749     50.202370936105872
H      49.166331988675388     49.101448373473858     50.111061714566176
H      49.932279434375197     50.416580516761918     51.130890608438854
H      49.365060548263195     50.942013803384320     49.980151186581992
H      50.079697242845612     51.007779347894306     50.661388748999364
H      50.488919832309300     51.091784372954741     49.589172653385049
H      49.751424563416542     49.519345876300541     51.028008899214896
H      50.185771560115832     49.962098386418617     51.465333400366369
H      51.073772920907047     49.877291881705027     49.409997301436633
H      48.795295413550740     49.664174204230200     49.802085497972008
H      49.271113172908265     49.751115684022274     49.592522403689742
H      51.198214146231415     50.225878076050783     50.039043034606543
H      51.032656212694121     50.364685559800627     50.577279031885638
H      48.198841014410753     49.164688259703496     49.801089747176519
H      49.925989230320916     50.476614662990784     51.821486831035919
H      50.299519859086345     49.949268166648096     50.822324191540666
H      50.960460500401808     50.147946667725080     51.306828456351482
H      49.320157507180582     51.151247653417670     49.430791661917844
H      49.257192930939944     50.774369253230525     50.665783200794408
H      50.121431921490192     49.674646888069233     49.295502279286730
H      49.994792877826292     51.048448479650347     50.022303969690626
H      50.574841472601989     51.375357328431193     48.938183090777599
H      47.947696734252467     49.558255252706815     49.171447017091140
H      51.199677464565077     50.302830217365880     52.041921371465961
H      48.089185546550461     48.944583118033982     50.336961442759190
H      49.706905663273623     50.986488762285667     51.677788579115642
H      47.535330769879323     49.455694782607004     49.431125016494505
H      50.464617870142732     49.043184159221177     49.124952675380079
H      50.035560791399988     50.959593650892835     48.524936956563984
H      47.496186473451210     49.784292169364434     49.862257774713974
H      50.717609034689993     48.865965972128109     48.671287034364745
H      49.812311291942102     50.985916447762271     49.307127444226794
