38
lj38_benchmark
H      50.000000000000000     50.000000000000000     50.000000000000000
H      50.137597504415467     50.308289451300560     50.385354304410363
H      49.399680700535193     50.094679810452512     50.396978307208833
H      49.997038132199357     49.501020789311177     49.666356825798957
H      48.877877545699100     50.199317192526401     50.555416817123337
H      48.448051144917855     50.090721177585671     50.199344841783059
H      49.720232989023977     50.649723750051166     50.452623803956953
H      50.245788008617673     49.890314627292661     49.345327386253530
H      49.487357028686468     49.164790493987930     49.656369027526644
H      50.157758317096871     48.859153485015142     49.753476217975319
H      49.378115239399335     48.676406056789077     50.222783175459917
H      50.057360055171927     50.278429662562523     48.980689907618341
H      48.931862029922293     48.595213913921306     49.643739758282400
H      50.831380533705655     49.429286499465491     49.439894512900935
H      48.048527293532274     49.759550196863991     50.536149530844547
H      47.770917286984407     49.659059775915935     51.165519454405690
H      49.721314198076563     48.359176705238895     49.578105689379953
H      50.842631912758499     49.879471275314017     49.966506458402513
H      49.633647460870897     49.193893200633269     50.652544437007670
H      47.499194476690512     50.225059427771811     51.353592774044500
H      48.043490543666422     50.564379083422160     50.242200705642240
H      49.975978727059235     50.210090069057721     50.857837149667375
H      47.124288848110325     49.588533492547121     50.724466800973509
H      47.520422270176553     51.026776238635058     51.386857481701355
H      47.682648337238788     49.315046450929728     50.041794281310786
H      48.216794525404858     49.866825923723162     51.704212521676311
H      51.537220160517997     49.284114229599808     49.091213370999554
H      50.850595771218309     49.940978875124031     49.172149312035060
H      50.946040408082972     50.440449869898437     50.385660456174463
H      49.325223763077858     48.138527556070443     49.063353890363231
H      48.339532858204123     49.312931737756628     50.618911904911656
H      50.987958152438864     48.976838940448140     49.657516801409272
H      50.273577609838490     49.442353765696929     50.294736604781299
H      47.409103730192371     49.678242681439244     51.926698680427172
H      49.476798903267337     50.675601170113168     49.106555304607177
H      51.492596561699791     50.317742266090185     49.324964199817991
H      48.391934345434990     50.388130482969935     51.506571450479925
H      48.274938522799772     49.329199429419752     51.704055143609153
