38
lj38_benchmark
H      50.000000000000000     50.000000000000000     50.000000000000000
H      49.270044008489734     50.157480045568668     50.276441927004313
H      49.586175614867933     49.817451951750179     50.723504038604695
H      50.337635362659768     50.510683826792842     49.804493624806561
H      49.275268377208953     50.815727116574607     50.622103494158921
H      50.054644499215080     50.693947862917227     50.666492276610398
H      49.625136760348120     50.287903246478564     49.763719973349737
H      49.909703114754123     49.362587894664145     50.214950595275077
H      48.975783557082345     51.327203842579280     50.467639071988621
H      49.832126066660017     50.746229394957481     51.284197802504131
H      49.222847828418267     50.574913632441692     49.832162852857195
H      48.709614605611449     50.240583876913973     49.463726673591076
H      49.602430824652828     51.264419966937567     50.282324579332865
H      49.169163582240792     49.366559226728938     50.805577339784008
H      49.321425322488473     50.284660211861521     51.396132015893990
H      50.828648956583834     50.813839341386561     49.902824182737731
H      50.566038817153036     51.406978075558754     49.666587228671574
H      49.450641930193555     48.875263565189059     50.344865722573125
H      48.874826588139683     50.181495967073531     49.954664301221449
H      50.155777140123078     51.814450735265808     50.398338283822994
H      49.238144972526825     49.302102165654460     49.941090886546135
H      49.267690367907647     49.634640644615857     51.461440544107226
H      50.646329789678362     51.080364896122738     50.554994003647039
H      51.129438027182751     50.371177586039437     50.081434894717930
H      51.122230006408977     51.273087977397452     49.351042912259828
H      48.591124989792803     50.637137988232574     50.879152907772600
H      49.637817469225453     50.925713228533603     49.483925070156168
H      50.309328378636835     52.496396479502671     50.738096154567529
H      50.095681366697839     49.809444950208736     50.661462757229828
H      51.280430477185796     50.195576891473586     50.596918719058905
H      48.704057435650022     49.990028505472075     51.453135198827134
H      49.621898468706931     50.776435107917209     48.724930032571329
H      49.988435487418634     51.374642453026631     51.306464356070038
H      48.844035510402257     51.505887559838058     49.888203715384762
H      48.957094781311397     51.947949083731672     49.570633820267169
H      48.755686848198032     52.364577300597816     50.018495826964191
H      48.580955683787245     50.871463801011899     50.435130952400598
H      50.235996409276744     50.631498303815270     48.350521478655864
