38
lj38_benchmark
H      50.000000000000000     50.000000000000000     50.000000000000000
H      49.989762681413623     50.349034629676673     49.289975574712280
H      49.695227050267505     50.404235901294633     50.055012736663677
H      50.295337950396068     50.478639910718186     48.891919125593837
H      49.947770147233108     50.706393612605531     50.687143026104017
H      49.327183572990144     50.655463837441999     50.988284377608743
H      49.362146372665983     49.712051844294230     49.986050443525549
H      49.844163303984473     49.963285756650691     50.716263669205105
H      50.287199693439597     50.294843388388102     48.315775985713010
H      50.635660362675480     51.022259596936948     48.510196064707124
H      50.429452534614910     51.065563207404537     47.944260081472009
H      48.873159244033040     49.874916333048944     50.333126943886668
H      50.639955673382126     49.677820239904889     49.735390738159794
H      49.443372587723260     50.928942717346239     51.465642734185330
H      50.448004779252038     51.021754122230035     50.449890464270418
H      48.899845420689765     50.272977126587833     49.972661135740033
H      50.609397486107795     49.802679505593815     47.989967771552266
H      50.397051727940841     49.352896235425135     50.371939757037914
H      49.644347169627451     51.281338621494285     50.468994420959461
H      48.605260150116472     49.721717111577689     51.006929228850623
H      48.184605880348506     50.364383867383928     49.722720588121994
H      49.304604478434250     50.235645136771048     49.559665066551908
H      49.929082172159177     52.016592128354652     50.314715802634851
H      50.417110745116837     49.753830880300889     47.416161100216591
H      50.010180219218952     51.097709676620283     49.561384183917220
H      49.729914736240836     52.708692447542937     50.398872754021895
H      51.331918374530083     51.213771712995268     48.311102099303270
H      49.971241703132698     49.046469620221082     49.788587381664350
H      48.223821919304847     50.021154332696575     49.288255981967467
H      49.221829111509216     50.480206983203786     48.820106004280632
H      49.174906640305750     51.091443187601477     48.492967611482968
H      48.984952942854662     51.455896080100658     51.225445944285198
H      50.265448089440376     52.284705946151355     50.873819318859510
H      50.085441091904563     49.769443742945455     48.073929848826289
H      49.527195538536262     50.388239325965039     50.539087219666570
H      48.781983939915364     49.234542099681164     51.563628157048853
H      49.302463333083232     49.517641880035320     51.559974454444777
H      50.176483801222119     51.409428256569811     48.783866292042788
