38
lj38_benchmark
H      50.000000000000000     50.000000000000000     50.000000000000000
H      49.529345974453960     50.027519751992571     49.482345338520709
H      49.827077110985442     50.642324177988399     49.401454004734397
H      50.481075141170798     49.517425914679379     49.874624960280435
H      50.901175466476772     49.513386539133400     50.314958318726866
H      50.881453198268282     50.125041067387102     49.594678415724061
H      50.857749316011279     49.723393511653050     49.088743339535256
H      51.620973338277530     49.959005976585260     49.427534517061403
H      50.277218113449038     51.190629651931509     49.203880077522172
H      49.836016821472697     49.187301208487156     49.672211810564789
H      50.561191575956428     51.725135577980858     48.690779315692737
H      49.339042030028693     49.281230848746958     49.564889930361453
H      50.418920002105622     52.330568395329621     48.939256338338254
H      50.208577780388872     52.721019317885379     48.471841612643189
H      49.843208106037068     50.174093069916928     48.746708351152549
H      49.684587960798126     52.748883279604392     47.968062929855584
H      50.197192065861145     50.127897406422022     50.624500612166131
H      50.609680456423177     49.811793087697787     50.936956890820419
H      49.986985892860993     49.451734897888365     50.533560957114304
H      51.457192691685449     49.610291357391553     48.782678740386572
H      51.358366036423320     49.897483320078663     51.099079387918053
H      49.507906044423045     51.100385178740012     49.910106441594863
H      48.949904630321996     51.052243242737589     49.510568074163693
H      51.802510392320869     49.163907875310912     48.830837289599209
H      49.342709712735164     50.471694274289540     49.072719830385140
H      50.118560294359490     49.306223010554362     51.283564455997194
H      51.357182682128673     49.665022095610986     50.597381886251902
H      50.664922415143252     51.139650004568942     49.610887683673496
H      51.096379080658885     49.206889700938454     50.771670165880032
H      52.061190910392718     48.787984350189355     48.625875253602366
H      50.816934783930023     51.569650106592967     49.829542939181934
H      49.715421853280212     53.051364515936186     47.377474072974110
H      50.135447281924691     51.674097011198555     49.978649912707212
H      50.297525229995493     49.078685849140790     50.144225500886911
H      50.828688265739551     52.264369948451296     50.120659801874744
H      50.077882822493009     49.859705197617728     51.866065360023626
H      50.715624527196908     51.114599056575450     48.688000278037890
H      50.775520682167127     52.981941943448327     49.066116974414214
