38
lj38_benchmark
H      50.000000000000000     50.000000000000000     50.000000000000000
H      49.486384319215333     49.875989066060427     50.094997891767569
H      50.666773681448859     49.836214566083036     50.380994980860777
H      50.776822165762297     49.345028588438247     49.912903431649923
H      51.334162391983710     49.220303568662835     49.620764301201156
H      51.231410358651203     49.121691087908758     50.133334925510596
H      50.204987626721234     49.009268931053050     49.524130921049164
H      51.337174240593804     49.979224078924851     50.378693292404513
H      51.496275481872516     50.741539928087889     50.405663981433449
H      50.331409111842653     48.345184814191171     49.807105399289043
H      50.315096964975638     47.791130333004503     50.220703195783180
H      49.331175819068996     50.108173545551381     50.814521835667271
H      50.505595846994218     47.718663805256746     49.502765564925255
H      50.616124221276564     49.666974953862386     49.370323051671782
H      49.669180200750539     50.354067446427472     51.372133434040940
H      49.474503368820116     49.894081319813807     49.587471621926973
H      49.986696231291482     50.779473732042113     51.499551617417097
H      49.704264534097078     50.808110913919037     50.704022485599658
H      48.886841595396263     50.077909909193117     51.243771814298682
H      51.178690985518550     50.027067992303316     51.117472342850284
H      50.774562682872293     49.459991306159878     48.730841108510155
H      50.975923244811284     50.633183632573214     49.883720601582596
H      50.385195299779760     50.219759635161644     49.311803288266212
H      49.896988984695057     48.319530892158916     50.621622257232019
H      48.801269591613355     49.799453468862737     51.724955639812180
H      51.012978966238713     51.164000072515876     50.056013843343976
H      51.427027636696643     50.290320524428729     51.781172113427999
H      51.903845040386649     50.851832609594958     51.613933999669960
H      50.389367192938998     49.169064971509506     48.592132752235514
H      49.760081346515065     49.758682522817537     51.401946666703275
H      51.968695164753449     49.356310482269322     49.506523505211675
H      49.953235794958402     50.852330053015422     50.054050166445265
H      51.863638404494978     50.008917244619965     51.195705245942960
H      51.389687569980929     48.473044588734645     49.490318646673551
H      50.740005805217173     50.162866634407145     51.893271280991975
H      52.087426569672189     51.048464559870418     50.528548591776136
H      49.377473480106751     48.469409447724885     50.740976572796846
H      52.059268976970188     48.546392312951802     49.491813330250203
