38
lj38_benchmark
H      50.000000000000000     50.000000000000000     50.000000000000000
H      50.633039330549643     50.418686999551817     49.958420065790932
H      51.004505618639783     50.691152743198010     50.495934716420535
H      51.367226939833344     50.193931644443786     49.758187501977091
H      49.716017955578771     50.357871107105836     49.465699091536571
H      51.664643318041769     49.943402234943434     50.288444189825945
H      49.891842502094001     50.859259737093140     48.868765687884384
H      50.687646038182471     49.713119381881476     49.586471107102547
H      49.950884652321157     51.554213877456931     48.799557308897235
H      50.224895370775499     50.193035986828072     49.367723197631371
H      50.815923194600011     50.792822069541025     49.463277317883076
H      49.574674670880768     49.379233948150876     49.813183060413351
H      50.158119012636064     49.379046683945738     50.169779887554512
H      52.088938584691547     50.242178468817983     50.801811821854720
H      49.040564692324885     49.687849289226484     49.681679761019872
H      49.902393058435351     50.713690850353274     50.073802350571768
H      49.871716004795275     48.811052865865790     50.385593116261219
H      50.002815591235418     51.663030130772221     48.288259982327816
H      49.707599869002358     50.300730880116497     50.268833834090699
H      49.495375854950218     50.943705492057077     49.317613067526466
H      50.276554282135550     48.984074770834916     49.521380996231187
H      51.793861310436746     49.425090836780335     49.735307306030627
H      50.787929511411157     48.885767079070291     50.024055609889679
H      52.648737564116068     50.107385259665023     50.994081182373790
H      50.667614338700751     49.074233336014657     49.095652420356387
H      49.589616118847530     49.129049103316014     50.898990536060786
H      51.901027577462713     49.230907301027159     48.987225631482595
H      49.544448976834957     51.501979774240979     48.062578611240511
H      49.727177220132603     49.651242086191068     49.276668850476597
H      49.404484305098279     49.338220705869354     50.480762539680235
H      49.124678000096857     51.146354182854651     48.932071921539951
H      52.363844342722281     49.550759763344502     50.898622515067935
H      51.052394060409853     51.034644451275355     49.900691522337723
H      49.923275877731072     52.339904906848417     47.899245965806031
H      50.405002958250265     52.701823253072256     47.922450059982133
H      52.663023678282919     50.610449991287076     50.550471561982881
H      52.278928723149981     48.724308844159374     48.997411046625643
H      51.409826114467052     51.145896729423129     49.339671477743373
