38
lj38_benchmark
H      50.000000000000000     50.000000000000000     50.000000000000000
H      49.521576850098249     50.330527431995449     50.521593339075388
H      49.541033613820147     50.163297320415829     51.134136479038077
H      49.990956601864660     50.817440811419623     50.996422076023705
H      49.131065321386451     50.248813099425256     50.050540540055721
H      50.464558702581485     51.411647252445682     50.861195858718098
H      50.473788837651554     50.855681880293290     50.882147826128019
H      48.770533545289204     50.457805670915690     49.446824899213247
H      49.354102796990176     49.791796386532624     51.624351724837055
H      48.761197603468780     49.948370072468379     49.391432786241218
H      48.670036226300098     50.632061148260242     48.877170168585657
H      48.997606683293995     50.163084353347394     50.572150060617204
H      48.675216784261345     49.427877540621267     49.014284583492156
H      50.355067383636396     51.205926353343415     51.552924406404969
H      48.969332723348138     49.481236375059467     49.499986017548544
H      49.760018308943636     49.328208481489746     51.307179381542596
H      49.325576867081629     49.104616607088943     51.548523215930274
H      50.793390799096564     50.719326449947559     50.334201700998115
H      51.435563532116134     51.160232463923450     50.525098829780916
H      49.296456279681848     49.086561042962082     49.544999316023677
H      50.906518885325838     51.220734143507734     50.233812497006816
H      51.560787490579770     50.654466506583915     50.565736898350536
H      48.679538123552447     49.176947122597461     49.799472115005614
H      48.332574575025248     49.693558507804148     50.308892974539503
H      48.648790144024538     51.374703647881155     49.123796131484589
H      49.317034277586728     50.656928606607075     51.704805293617873
H      50.216987481419508     49.580541918788988     50.154986550322853
H      49.004449763374261     50.704067489725759     50.737205751756576
H      51.324818917728692     51.737317330438458     50.853289223498848
H      47.834798883861680     49.735337998547891     50.647275208015984
H      51.286927636686599     50.127842563187883     50.357618103449106
H      47.368889614749676     49.766834400333991     51.141969985276830
H      48.595807698976579     50.630320445272787     51.514939652153572
H      50.826055015531765     51.965844137868004     51.403605450176002
H      49.727706751813223     48.541036837679442     51.665957876897949
H      50.660212242654616     50.058011832644631     50.635094846044886
H      48.613616110239604     50.220284968960115     50.949161670837832
H      47.135747705462656     49.519603572154843     50.433228030490277
