38
lj38_benchmark
H      50.000000000000000     50.000000000000000     50.000000000000000
H      50.548908983284250     50.571719806670153     49.967692116794069
H      49.613795275976081     50.473371720809219     50.236216237234338
H      51.199911514790045     50.156345346004684     49.795023546430421
H      49.436753707670526     50.207165819687795     49.628507005770579
H      50.230087613126109     49.368627831716196     50.442884424838432
H      51.836997107041647     50.312669200909312     50.123477487149700
H      49.773030323141917     49.283821717826633     49.753097532406095
H      49.539762201724628     49.643669961026987     49.471389850216148
H      49.833010988448386     51.040081946140802     49.732504332123895
H      50.479050216155777     51.461931969834630     49.624190211350097
H      50.896729041026148     50.605267142584289     49.594366034665541
H      50.978101212471202     51.099283979228595     49.572216142421709
H      50.846012704567322     49.457094975712273     50.758377513206106
H      49.954818973853769     49.790316928672368     50.939923724833839
H      50.433603556814489     49.650833037625098     49.610033653338888
H      50.056912000374616     49.581458827725996     51.398193252301198
H      50.545272777007597     49.033777106123203     50.925209099879581
H      50.746622124316090     52.035292188055685     49.691840099845940
H      51.549846117619694     51.360950369172407     49.464005258713748
H      50.094507570614184     52.473152416840492     49.712640912152388
H      49.350987138481251     52.713350854158776     49.596266420777837
H      51.629690548081420     49.683987345649768     49.671942412445013
H      50.305998006643264     49.579783574904589     48.889647010591808
H      49.871282639709555     49.031717090638161     51.385970799225731
H      51.258987643206986     52.152915094738326     49.707579976193927
H      49.767759881375156     49.912633601266116     52.022270973768016
H      48.828995163781926     52.620219968500713     49.070633958373428
H      50.654704167508989     52.561492189286177     50.235486313652771
H      50.613130440991377     49.556806614206920     48.162115679370416
H      50.168539204655346     48.985178875373215     48.690151533902224
H      50.345745576905031     51.635036145031194     48.918355220572195
H      50.266412155357301     48.705336282692571     49.551758790190497
H      52.083274162609385     49.632710741103573     49.365071623960723
H      50.864442469602238     50.762308023026215     49.036819085477447
H      50.379860920338189     52.976089016576672     50.257332053176050
H      49.747563186495334     51.952106999065293     49.953289424669663
H      50.109875398958906     49.592893149455548     47.768533540797691
