38
lj38_benchmark
H      50.000000000000000     50.000000000000000     50.000000000000000
H      50.395220980594090     50.025151147826399     49.451309443518532
H      50.688258466567099     50.295569042736204     49.958417590540456
H      49.936546872994334     50.634695577764589     49.340062051185988
H      49.431722834729804     49.594645729541597     50.138647163893530
H      49.634995998952682     49.138977045453167     49.536988685560452
H      50.145608259187632     49.077348271682595     49.294824353000180
H      50.502584475842994     48.548548730157712     49.689884984413133
H      50.585712294907992     50.519174489674747     49.100100909029223
H      51.105687161131677     50.636008608141587     48.729398784376500
H      49.472362201973155     50.395547433964978     49.737786424213269
H      51.284233088723916     48.575708901997437     49.665652543631992
H      51.516741100284605     50.992948860022786     48.488801767794250
H      50.229040400987422     49.461772426480302     50.507721871441333
H      50.422342870749077     51.257769229599752     49.006866724604997
H      50.644084433213997     50.004886276120381     48.510111566008163
H      51.242005495719077     51.236503099711861     48.984259710198756
H      51.214198213298680     48.159448808071431     49.951632575507425
H      50.791259312440928     51.503494243320112     48.658518490206113
H      51.274480142559320     49.650502689423590     48.501436872903064
H      51.003699260181520     49.078345393068403     49.144075474312260
H      51.156463501888204     47.685059542309652     49.666811097058783
H      49.704432259887213     50.202293836998798     49.236782405931429
H      51.827332742666727     51.534866275306626     48.085361107181626
H      49.818901016247885     50.325596813071783     48.579112300687399
H      50.875681845952329     51.274537684304619     49.604862241143728
H      50.273514285820617     48.348086709972144     50.392094696258958
H      51.266016545177955     50.369880047032680     48.260924734334949
H      48.888668792022685     49.481100160834131     50.336380845119699
H      51.321078034069764     50.194404067176876     48.830206980268741
H      51.418411460350775     51.382242562254291     49.586301970557258
H      50.795320370772203     49.216208661678237     50.178068380862612
H      50.825590946980242     50.708572657967466     49.637090496989963
H      50.401969923523637     49.349911883902394     49.747747468945782
H      48.958542417614389     49.101390320890189     50.687575557626168
H      51.362795138207055     49.602091139165466     50.114961295673957
H      51.046569120364957     51.996510565153486     49.610314339928983
H      51.153632673564843     48.895718015175007     50.791890564625035
