38
lj38_benchmark
H      50.000000000000000     50.000000000000000     50.000000000000000
H      50.493166400665253     50.142633632077072     49.895968792329860
H      51.187510571169533     49.862673437533509     49.907261137945731
H      50.691664824092378     50.495789538866177     49.392872845146442
H      51.425637696358109     49.386323449362258     49.747489201795446
H      51.765574446777023     50.043010890768173     50.375037060059242
H      49.428580331878692     50.095776502898488     50.094695394397078
H      49.394367588111379     50.707103092964111     50.155237946192138
H      51.570969876232837     49.942432539514542     49.511496375583015
H      52.015729878056732     49.713766964932532     48.977197803283694
H      51.549531625400917     48.885055155494321     49.475168971961068
H      52.680584308417046     49.497586465910622     49.370928654532506
H      48.926019026979610     50.080894011339595     50.373795979608346
H      52.171077609470785     50.328757307998266     49.097162307425357
H      48.482708007874244     50.021714699798622     49.856497920141244
H      50.880422982097471     49.180102100299685     49.924158703578044
H      51.295695937514360     50.617352120796390     50.662397295473347
H      51.467099109340353     49.016810751328237     48.689143261825578
H      51.757110497333628     49.172332738666775     50.090452067729295
H      51.316348225736256     50.387297366032506     49.418362993783020
H      48.467152685483434     50.599657124979586     50.174904056160564
H      52.619110607015827     50.913592752063074     49.210526541538762
H      50.829190025946467     50.925971763936062     50.026473900294967
H      51.563769887495333     50.699374817927783     51.123358113044972
H      48.152785188548016     51.085791610169622     49.730193010050982
H      51.840600397102250     50.650021395575806     50.523832247832935
H      52.118152910489066     51.188362598922559     48.674082864172014
H      51.274139052879455     50.249635141328795     51.162222147485153
H      49.202195460414352     51.321014208913624     50.602554643398655
H      52.993439304880646     49.057140812900450     49.342383717981555
H      52.405341524556640     50.485808987540864     48.410195654411531
H      51.497012151001961     50.978934270997968     50.123609115856020
H      51.334072722255861     49.538481653053253     48.495478639236005
H      50.521621740371046     49.390945632490258     50.244126448855845
H      53.098840413859037     50.624403634023075     48.711629958722064
H      47.964191159324642     50.181492134297379     49.376425056083910
H      47.782512116473690     51.406068526992698     49.977895598021242
H      47.312979457611483     51.476333984027832     50.151253920712819
