38
lj38_benchmark
H      50.000000000000000     50.000000000000000     50.000000000000000
H      49.404930523335409     50.055136403228573     50.006940987542961
H      49.087446126807706     50.641239932745364     50.333792088934800
H      49.639986611325710     49.761181091405930     50.374686177358399
H      50.123237763698654     50.369254330078725     50.691249008166182
H      49.350984601015377     50.172979831945305     50.724397329627905
H      50.404875136891427     50.179648855057586     49.488442346867494
H      50.059574760722931     49.290902042578082     49.672539018096174
H      50.407281384181537     49.806345338880575     48.796441926459963
H      49.006292280747772     50.562114981992210     51.160639121678066
H      50.662357890922777     50.860165821636741     50.582275948696335
H      50.049544325387743     49.912290633629290     48.280114899702554
H      50.199103075615206     50.813114244283092     50.225779203934295
H      48.831893143090952     49.996340088154490     50.280340841996164
H      50.165063496497368     50.586145051634048     51.352407951836703
H      49.258795233437361     50.145872044748749     51.332294005766592
H      51.158511697322226     50.133158111858783     49.628227928916921
H      50.550831855566948     48.740887316349280     49.723842325384410
H      48.426979933063926     50.941997747215723     51.073699804231211
H      48.809363179430242     49.995198415266884     49.583638258944404
H      51.004024885246423     50.424282824485047     50.044276644753673
H      51.409997976150741     49.934171944830524     50.152362567491579
H      51.319444031292129     49.531866680808321     49.697027868964447
H      50.976043920560919     50.434238332606142     50.733094561268324
H      49.825509396480669     50.177661557587243     48.868623312304692
H      50.345379205982077     49.128775027589981     50.406278185046084
H      52.103280678366914     49.705065513274405     50.346071069424184
H      49.451744942674424     50.809598784615339     49.780793572166502
H      50.529119721793471     50.157938059351260     47.805020270045482
H      50.865875940049442     50.411760195047464     47.413006286990296
H      51.490416765876077     49.989475988311597     47.204237429932377
H      50.819208989199424     48.680553083982034     50.160835584170165
H      49.297825848959747     49.394669848096953     50.416887977993746
H      50.472728750951816     48.863309523646052     49.149418757706229
H      51.184570580274226     50.362532797242544     46.818532886522483
H      50.001592856704725     50.487299500062129     49.718305374394873
H      50.914125160624614     49.223636068733185     50.151046610476442
H      50.111056437865379     49.542690247524000     51.022397500792003
