38
lj38_benchmark
H      50.000000000000000     50.000000000000000     50.000000000000000
H      50.324948669582874     49.678861219646215     50.489283844755036
H      50.571008497861463     50.189435376565093     50.414686769966053
H      50.679204369881369     49.412876879998116     51.067597322492205
H      50.661991583916802     50.662373178173688     50.835948424599088
H      51.027945358077375     49.959503080044783     50.786779078814639
H      50.088149589782311     50.094273095443818     49.515293319927537
H      51.347209179754643     49.805136392279714     51.301964908559135
H      50.277213316461690     49.768143102494747     48.881093725199015
H      50.152494648013480     49.286424256545395     50.974736767902854
H      51.258783718163798     50.744174125052098     50.744304805344804
H      50.822927422695130     50.298397407734420     48.733842177042789
H      50.585464474613808     49.870209126450980     49.698470964495705
H      50.591888979194309     51.336624632310226     50.604980742124930
H      50.413859583343559     49.791332712649591     48.324955814363229
H      50.010901511790081     51.073051198658874     50.555843485271332
H      49.862250167645932     49.196760699478830     50.117995936168462
H      50.526673440436291     50.364718655298866     48.233662242225265
H      50.760248073527507     50.158515123263754     47.606867143467255
H      51.075929301617727     49.370775419779513     49.529043919545281
H      51.539360760420543     50.223107943763239     47.685559865087804
H      49.400000808853427     51.141494623154585     50.583614626070215
H      50.063453465602386     51.640508546316752     50.393879122012663
H      51.751300453542584     50.417807340090150     50.470729239571043
H      50.778727724299273     49.952421183541105     49.089225423360311
H      51.100061812745892     49.929073727771119     50.251553052003821
H      51.750619479255136     50.961483801229143     50.091089051553112
H      51.300441255460150     51.191400035410268     51.200739434306797
H      51.757111808489988     48.976099338545978     49.606870513630234
H      52.204205374211377     49.925531091821654     50.258895908003119
H      49.151138720843903     50.632432728027496     51.056241879898018
H      51.698228699427929     49.798951142472831     49.968177971625472
H      49.713587673311324     49.754110100376010     48.625884038577297
H      49.358641663298556     49.933596578296068     48.210577911509930
H      51.463920408171745     51.736738044317590     50.896421041820076
H      52.266031514067009     50.862207763211721     50.299766250610169
H      52.780096035943856     50.475515146408284     50.394972017983051
H      48.553135899885937     50.882051422677414     50.842454586077935
