38
lj38_benchmark
H      50.000000000000000     50.000000000000000     50.000000000000000
H      50.435947598317973     49.529945581550393     50.086709763770536
H      50.239499450543903     48.946152828702743     49.639130827476819
H      50.018460353279600     48.432542186085541     49.159969311198786
H      49.464821743008592     49.716198062160714     49.873314477790430
H      50.110136380707779     49.032463529242278     50.343594560912919
H      49.519879412626736     49.936047976662820     50.607727998773996
H      49.942811281923426     49.169237391155370     49.242495401332256
H      50.244339239904157     49.640800050389679     50.724128000303217
H      50.814246232690124     49.253599050145397     49.804763171424902
H      51.113895700059636     48.548406185566286     49.765252398181204
H      49.704518442733800     48.716189849632016     48.836179638053984
H      51.385810234359333     49.094647589829293     50.054183615308183
H      50.849366201568792     49.517602595197033     49.304711085150650
H      50.258957334436950     48.986579272209894     51.000786225148730
H      50.459583722470157     49.680307575884861     48.768215827295940
H      48.844616856899229     49.932157078219930     50.877405368389034
H      51.387024585197508     49.328085412720952     49.502958116740302
H      49.071758297119608     50.025525677653746     50.132768702475566
H      48.364769200069368     49.435186825811179     51.078225302314998
H      48.984196405437906     50.571926120507776     50.423461773415625
H      50.802769475225610     48.742555093533383     49.324230171139718
H      49.765850592254182     48.195541902183948     48.248156292473681
H      48.504425316621614     49.425260561271898     50.292337225414201
H      49.505560151290993     49.629550390559167     48.818880962735115
H      49.750657889556663     48.956773643945105     48.328226248616893
H      49.783167861961232     48.891048608945908     50.695062071304051
H      51.307964780802017     49.464302146779261     50.375606458409798
H      50.266760280094907     48.002789022867752     48.602716252634330
H      50.562722495655073     49.151886375988198     50.526509342405262
H      49.672619150248408     50.566686864035660     49.991354552519311
H      48.161898667363744     48.751870469245276     51.028955674418029
H      48.407726371694395     49.189588782645387     51.670225822329897
H      49.273743289962972     48.062101756480658     48.145880620827640
H      51.658838256999388     49.819335428569403     49.706634195975397
H      48.335819959031582     48.422984652001162     51.440451362099715
H      48.981113450225550     49.483069201024684     49.048633784955761
H      51.514207212854060     50.088011095469227     50.125968836708907
