38
lj38_benchmark
H      50.000000000000000     50.000000000000000     50.000000000000000
H      49.455388282191571     49.510677806139178     49.688762240261717
H      50.181101462250574     49.531993134954917     50.051173487337486
H      50.618560372356434     49.425796459467712     49.617369218145996
H      49.784128662840352     49.469609975643650     50.733662067822635
H      50.471978868215317     48.877995171436346     50.366440028827668
H      49.918605075379304     49.734162972432927     49.107780688506992
H      49.458010063228372     49.736968945511428     48.640279863565610
H      51.004107246160252     49.833118535499999     49.592959731876249
H      51.595219914387272     49.866869037584557     49.134918043297432
H      50.627360062100053     48.789150944764089     49.597401097533407
H      49.635273777581553     48.788050367919269     50.577979867949374
H      49.223894063724877     48.514300075997504     50.983108626449152
H      50.212054369154984     50.549210040792332     50.542717417755149
H      51.608142001697374     49.467724580515323     49.607953974900447
H      49.642595274748501     49.989031920180338     48.009017873795074
H      49.842944470749124     50.109257642289549     47.368938804777954
H      50.744657259055849     48.872264190686167     51.035736869091856
H      50.103226756336504     48.211556291162481     50.294895096942952
H      50.352220849430779     49.933252903241467     51.023274969463202
H      50.657207048187239     49.666540298405913     50.470696555553722
H      50.556312576642398     48.916865685345400     51.642026363659468
H      50.198181525193675     50.268931956348474     47.801336965045572
H      49.146941066024262     50.136121538303534     48.835324113245441
H      50.544410969594729     50.199882919113513     47.100725551615824
H      50.565855558725076     47.915768878646404     50.723230846378755
H      50.557734615793500     48.854676099158091     48.942698553779280
H      49.348571049764232     48.599523279143916     50.146881568559266
H      50.259480362152395     48.990658802484859     52.078741342443138
H      51.982604047629970     50.548371954054886     49.227397126507974
H      50.785459913369948     49.701565957466151     47.276450586300882
H      49.218130748279123     50.269364405028924     47.365911908289419
H      52.130802028857737     49.117800542700373     49.304617887569833
H      48.885603265948788     50.637911713837276     48.339766345934002
H      50.031337860105623     48.966581483219940     49.100871836052320
H      50.647898252008659     49.629233768162479     46.587384265285586
H      49.956653694518970     48.979107975680115     51.616220470281434
H      50.962710297039912     49.558610596594995     51.236607672448208
