38
lj38_benchmark
H      50.000000000000000     50.000000000000000     50.000000000000000
H      49.779406527695905     49.353460722435536     49.853336493505907
H      49.844488305040059     49.290897578760820     50.352236255107911
H      50.459972662976611     50.016427853287837     50.515875279760110
H      49.499421796864510     50.386368815705922     49.501686335994300
H      49.988256694358512     48.850297574989028     49.628507322391307
H      50.784801241571955     49.834346021536049     49.889678853257919
H      49.701053313858736     49.541478964977664     50.765834314588965
H      50.221018943170797     48.177208770232824     49.447442668272878
H      51.499350624736167     49.697858856250839     50.234481789319453
H      50.250576318963425     50.459785741732190     50.151201848440614
H      50.384689845018208     49.930939717446904     49.232961586601753
H      51.412425990447012     48.967812752124964     50.440965544814269
H      50.035407136367859     48.470503563329302     50.122178319185778
H      51.316238317670120     50.279022350839810     50.632371768861866
H      52.147710643106024     50.008272913037324     50.254640292475059
H      51.075753987355597     49.742460211918676     50.672686909163922
H      51.834923336923005     50.406175438453353     50.885093029069957
H      50.400869415344566     49.244567125333390     50.006877245441451
H      49.747443630944744     49.204792766320359     49.029549300392965
H      50.583088027645026     47.736561581217131     49.061531194487110
H      50.955113808945022     48.421768563183882     50.472156091034471
H      50.795402778426322     50.038364256837845     51.333380000210830
H      50.440111625270369     51.199736735828971     50.114150161071457
H      50.673585346179379     49.111058078830190     50.588866709887562
H      50.539613385340594     50.389535837626838     48.747335550076698
H      51.831613547138723     49.064186921748899     51.064173002782532
H      51.424988455459584     50.411508899143520     51.643069603761361
H      50.470227199840068     47.447857625047305     49.542505951317580
H      50.039795666412530     48.820940552824418     50.781268103807747
H      49.658599355317094     49.854506112057727     48.811458320216730
H      51.372501885673330     49.785689582109981     49.610405891416640
H      52.523743012622155     48.942819142970905     51.084439723472336
H      50.666001901151155     47.562959454205924     49.987220916482613
H      50.087766137697052     47.103207738972515     49.127860795023309
H      50.288119832230514     48.657513756517723     48.824839123190202
H      50.977976794733230     47.637071128289108     50.373904970310797
H      52.192148524630014     50.735484502552595     50.566894884655554
