38
lj38_benchmark
H      50.000000000000000     50.000000000000000     50.000000000000000
H      50.601514899585688     49.841240131769162     50.474615449323032
H      49.934507206486181     49.261898455775963     49.820069703163178
H      50.321561475977433     48.733293594697656     49.941852855605667
H      50.976379271501692     48.533163088654526     50.002247721545395
H      50.881517443238536     50.516945645365517     50.630671371160375
H      50.981267918918228     50.901861882720539     50.183008906316260
H      51.724107381511871     51.208713170107956     50.208460100334413
H      51.122633656202005     48.566686844789601     50.677021597422623
H      51.403282954839440     50.562608798567837     49.939215748802916
H      49.544030688975091     50.595538173716051     50.001971923765034
H      49.671412618275241     48.296880044347056     50.088536184519981
H      51.425906368165563     50.648877604984875     50.582761610851961
H      49.606897018873298     49.711986756149024     49.441593631886924
H      51.236657355407388     50.225316554730455     50.331968471111715
H      50.811722303784066     50.905442591125322     51.243256419683291
H      50.358562913317904     50.108611520235222     51.108698938340659
H      49.947420880005396     50.443895182998844     50.369016024020773
H      50.355989360077601     49.430851113853173     50.768868602972020
H      50.190679077281061     49.931202831802075     49.394650568129904
H      49.224166671797086     48.574083145039609     50.624222619272118
H      50.322161844456758     47.910237523389462     49.952316023148413
H      52.065071989871392     51.327783586603353     49.527018893007849
H      51.404539975767797     48.020423255997095     51.043756796324850
H      50.882701954667382     50.984836238644718     49.626411550953350
H      51.788865510536482     51.855440765073887     50.262849769479644
H      50.178820246497551     48.491652842358349     50.568623443221192
H      50.157638675746348     49.263511363698406     50.267618559974991
H      50.634503582566964     48.750731924315780     50.911963926157398
H      51.969961851757454     47.784481922432938     51.351105641420411
H      49.398125991895562     50.633853316916699     49.453546824952845
H      49.854052440113264     49.887256503646881     51.022383275510826
H      51.764484394285894     48.658073070657046     49.993772960000911
H      51.307100067324079     47.306716868486831     50.770224051890466
H      51.706512164627981     51.966361624000221     50.953198586578829
H      51.237590476626266     49.074083446851908     49.761386055717907
H      50.672877151594392     50.435728913480602     50.107863824474848
H      50.536796995737312     47.650666068085300     50.359877722371792
