38
lj38_benchmark
H      50.000000000000000     50.000000000000000     50.000000000000000
H      49.295381933940050     50.229602432853802     50.206276379475398
H      50.681395532413454     49.865907182960960     49.766159760657011
H      49.992370178892621     50.629671105768359     49.996883828793059
H      49.269329817989039     50.866932617159556     50.343976152634369
H      50.824420781248548     49.779759252200186     50.280481485270457
H      49.582098484120905     49.633982037027529     50.266057432545722
H      50.628280780473553     50.400345116459320     50.647456492408381
H      50.154290149525629     50.840061961417753     50.681861059474699
H      51.222782521218392     49.940666523225985     49.340440046795479
H      49.063202201537351     49.488340335315563     50.249283819792772
H      49.459324596786239     50.709849653375215     49.438410560554154
H      51.340890159180617     49.967175452688871     48.554709884559692
H      49.818657669054396     50.810065817448233     48.957894590854366
H      51.033189120043765     50.839307626682732     50.343899514348578
H      51.487880247457760     50.554750216340878     48.138734702740159
H      50.016789156548498     49.470151699255545     50.723543237593169
H      49.323596177932302     49.059245243326004     50.464291576703438
H      49.763510155461191     49.528533521269651     49.691622535850833
H      48.889780783283108     51.008470924671215     49.059991948260574
H      49.118780613102359     49.228717885905589     51.183070074264748
H      50.735673708214946     51.412152922540152     50.142615866839073
H      49.768984973849676     51.320479560099130     49.083853914724422
H      50.569013166581669     49.068206410599380     50.132323539136365
H      49.305270700918250     49.241843806734892     51.938744794867809
H      49.828962780102856     50.284395547590101     49.357096075873173
H      50.319008388550856     49.964729432552147     48.980085936828239
H      51.574630160931527     50.541970912950347     49.293751619369608
H      51.132039433387106     51.777653206210260     50.015993715272280
H      51.106825712430989     50.408145450782861     50.938386123398871
H      49.760271909345484     51.151403307042990     50.499387550848581
H      51.731691626518248     52.084577116177549     50.177477656768872
H      52.229846448733618     51.888737336770021     49.957793157183850
H      50.915338764705254     50.179494747163439     51.554442498560199
H      48.344780675172011     50.516729704185281     49.086646340292020
H      52.006616434987471     51.666246020273960     50.808499378534592
H      52.855303325977772     51.624814170621391     50.228717548752485
H      50.405283477169419     51.452054032182907     49.561494580605221
