38
lj38_benchmark
H      50.000000000000000     50.000000000000000     50.000000000000000
H      49.828614002111543     49.506960894115622     50.418584579067428
H      49.995315886908671     49.688052036933335     49.274371543467410
H      49.751611370379109     48.873786348117711     50.191336997783694
H      50.343249809350588     49.084113697172640     49.966688755372616
H      50.873186185465855     49.123209335510325     49.953119016922074
H      49.799674559182264     50.390354981397046     50.512182018953887
H      50.494275205215679     49.426385520593776     49.069281219442054
H      50.049736543127729     49.242707201250425     50.836332170423155
H      50.009580702304405     49.800479779970999     48.553181566038099
H      49.681117933373244     48.673604797123637     50.693012204049403
H      50.288699521621311     49.487626611239300     47.984543331758601
H      51.110268142488962     48.386389054358652     50.007606415426672
H      51.648618672916193     48.201697440425619     49.515703646930149
H      50.313206226738501     50.470590625852715     50.855226790519659
H      50.829073968923943     49.627721004872910     48.552309410025629
H      51.432387322118629     49.491605662237674     50.227163040536368
H      49.354311999558242     48.707621467793764     49.591615220690237
H      52.048977513558889     48.792693487348451     49.691347852413443
H      49.722365022870513     48.544175765731367     51.349273497449715
H      50.220715633762396     49.776853865492868     47.500684096598512
H      50.636088568302313     49.839077581583048     50.042967125142994
H      49.580258081097632     49.311537426210997     49.374064732306458
H      52.379997159085370     49.257037297575877     49.242699578099597
H      49.332898499408472     49.481601985266352     50.490234513216805
H      52.395958255358991     49.771447646937411     48.924639199785688
H      51.504457612885702     47.775603045829094     48.889487115847892
H      51.345449483997641     50.075648971710336     49.698643080724622
H      49.780330353544493     48.469759548642891     49.349246090328350
H      51.041540658923580     48.953430643123667     49.444817748778924
H      50.014694689224967     51.125642891005931     50.510733237748980
H      49.953387433668645     47.760421677302674     49.387637456759741
H      51.945638798368357     47.893012266950343     48.466782842326140
H      49.991803906237969     50.491104792704931     48.942193997464322
H      50.403755227793638     49.990016258783001     48.221672413457576
H      49.912328656429700     50.356171162708215     49.534512809291705
H      52.100525663911277     49.332140979378309     50.074333962274011
H      49.328061890812194     49.861790916223747     49.784074997451889
