38
lj38_benchmark
H      50.000000000000000     50.000000000000000     50.000000000000000
H      50.024833630085823     50.372035264372187     49.501607970333367
H      49.673236003039968     49.744494971299076     49.211594230977383
H      49.646138971385518     50.719579004450395     49.837909447563362
H      50.285920386733586     50.824208820051766     49.941266512992740
H      50.427380839676808     49.985307607111473     49.377932698512133
H      49.811453040417987     50.000774736583075     50.747424635603288
H      49.399838563949061     49.640497380954812     51.013205404255601
H      49.744181451702801     49.120566152492721     51.490787409897628
H      49.887939744394913     50.913425202329080     49.122109128042077
H      50.235192873589725     49.575516584890188     49.871852991591062
H      50.805567380676948     49.377957450499295     49.461083746012633
H      49.970762155535823     49.310028879622500     50.469394605431901
H      50.395757690639478     49.450444772919703     51.356915595385246
H      50.641746396589255     49.809980232154771     50.075295765563986
H      50.991002178319931     51.026855324899749     49.999298801099812
H      51.752473076996864     50.841430650593807     50.186276806481374
H      49.791861015484301     50.316831006155844     48.844384135093769
H      49.649428303243340     48.724735644754979     50.623355503046362
H      49.974800634576170     51.253055566465790     50.360281817485998
H      52.200756069566687     50.954403166039810     50.474308893465299
H      49.899128044808144     49.407923061873859     48.803783662726239
H      50.216169856438569     49.631317198653406     50.820361907418160
H      49.447201283972959     48.557361182200033     51.469383175205778
H      51.288699252290399     51.352424387899127     50.324109213800511
H      50.216460903731388     49.439802118299738     49.308244766640676
H      50.107026380017189     51.191349469359480     50.890886044745919
H      50.551614346766854     49.898640091828831     48.851350351273844
H      50.527182394554345     48.959914770334713     48.633761134500041
H      49.790211486446111     47.983006833816930     50.441066211830339
H      52.655809262084034     51.260227271757920     50.939671913527675
H      50.081142481500827     50.746443641625298     48.371832452288579
H      51.302981229982912     49.942601559033960     49.979782466787327
H      52.285041586440357     50.906715384635547     51.116013824554045
H      49.456418378302949     49.144517726680071     49.107786446819389
H      49.386241175631980     49.832013469423380     48.538303210193966
H      49.173874089656159     50.985975270588625     49.252529928178987
H      50.800535344103785     48.851501474949870     49.295873495394943
