38
lj38_benchmark
H      50.000000000000000     50.000000000000000     50.000000000000000
H      49.440640897095349     49.995495922638426     50.309067104835592
H      49.575351426119745     49.704649402742724     51.040547872400261
H      49.417702775505632     49.886541290148784     51.475365324024899
H      49.500814858239998     50.190793289185414     49.491637463833285
H      50.535734116808456     50.450081516065147     49.833172427630885
H      50.722447728309987     50.795857743418388     50.508770239948284
H      49.159644831964314     50.572363472642863     49.274699805132343
H      49.313958305901863     50.393337345547714     51.098529089709061
H      50.291992856742048     50.715898079111817     50.801862661078715
H      49.387879335205106     49.683076511638205     52.038023123962937
H      48.657532801398339     50.565008334909493     49.418135135556412
H      50.997234318471328     50.672653432072885     49.382356407295745
H      50.517174044230295     50.278745855650570     49.172848773502679
H      50.687864869112033     49.643676831428500     50.144414594554391
H      51.423556542271669     50.911426381626292     49.173086550128573
H      49.012381457696968     49.301067181689646     52.368326345110361
H      49.830299447240570     50.423294717717738     49.186472893979506
H      48.892516844055073     50.847483040692801     50.607231129502019
H      48.776227471068211     49.624010376330027     50.310799233985804
H      52.172316876259387     51.061248365533274     49.162367107141698
H      49.736995313072939     50.657546286548580     51.108252872758278
H      48.433273468030265     50.093536363214511     49.371847909254022
H      48.227576188958587     50.752522579099910     49.119297705441539
H      50.270662156921411     49.650265742594954     49.354487989842966
H      48.200072609985796     49.466334764860491     49.322655056230104
H      50.027837835384616     50.037097737633196     51.158173225558279
H      48.883403577089311     51.306716224717881     49.153835440628853
H      50.986367584312433     49.198530961034706     49.585253411354046
H      52.162942576512833     51.615088758485875     49.417482251380214
H      52.212883134014938     50.633880905601131     49.571059751155907
H      49.442233930581821     49.086817139521379     51.013735823556019
H      50.037474215854687     51.038401293134527     50.007861273233608
H      48.993884115185388     48.584135145521977     52.487091044992880
H      51.361608409383656     50.125087165376442     49.750430252649323
H      47.796668992439486     50.063808661839765     49.644746765022902
H      47.803448798085697     50.477829871549616     48.836938054969835
H      50.958498637512989     50.972230833692926     50.001782469403345
