38
lj38_benchmark
H      50.000000000000000     50.000000000000000     50.000000000000000
H      49.435674627180070     50.026566569143839     50.359793189144483
H      49.052500685837551     49.821210445810898     50.968106505393827
H      50.028766046013274     50.168606036752493     50.670416836039429
H      48.795512863194553     50.348771491925163     51.412192223730543
H      49.114102091277587     50.296446355359421     50.685526483104240
H      50.182286012661834     49.335328830967015     50.323355579227659
H      50.233601377331937     49.176414171814294     49.696492958727895
H      49.033466175566794     50.990110166419733     50.527655857475516
H      50.800747568220586     48.741973074786323     49.592352778889364
H      50.619892049561443     49.786329737639917     50.119704699306517
H      49.597220995705470     50.638355687386991     50.239295468029312
H      50.000010246074481     50.883694826873189     50.669422950213082
H      50.782079247269266     48.174902794273329     50.044436331476653
H      48.069152354681876     50.159256731192777     51.355600921945673
H      47.388150972017648     50.154694655809728     51.558583898499627
H      47.624863862200748     49.876405782821692     51.899840435229486
H      50.340142611593578     49.397255400831867     49.107529622753283
H      49.661480282430951     51.166667480084975     50.025411571517552
H      50.607742462703868     50.281539048380935     50.679491578142276
H      48.297122203048879     50.536036780924491     50.819936697989036
H      49.772103336387460     49.144641392101732     48.903123557318651
H      49.846565311398429     48.711710207807705     48.356146549273468
H      51.044040203318971     50.792435256751148     50.494217308063398
H      51.040923935732096     49.741973001529658     50.569171083320676
H      49.132839113396194     49.529679585733405     50.085277410507160
H      49.391262652117831     50.013792757135128     51.561223353414704
H      49.851887804939778     49.126452926725406     51.020622390557406
H      49.745733285717904     51.302220654153871     51.157240961254459
H      46.695100534293665     50.397083421138412     51.248028302120886
H      48.361496606594173     50.222036930729494     52.015864224460472
H      51.287496088978813     49.264639766139588     49.536238522021421
H      49.091392010410075     49.455635984112000     49.171972719813368
H      48.220849285710457     49.429408449734517     51.146425611190807
H      48.711470535662016     50.163905408961298     52.669253555423921
H      48.535589082142877     49.774805862586206     49.884391369836592
H      47.939822246160432     49.526269917897700     50.298061829576909
H      50.080634705582270     50.767795889899133     49.763619593716250
