38
lj38_benchmark
H      50.000000000000000     50.000000000000000     50.000000000000000
H      49.939409388246929     49.704291983602353     49.285992385629285
H      50.092780355041178     49.447619403949219     50.199548594065540
H      50.564331601931457     49.220824743111130     49.850151866101470
H      50.329734139286991     50.598531336396050     50.271330754687725
H      49.640795780834267     50.762485524057468     50.611317902217095
H      50.052112993574582     49.866717702663315     50.750489768573800
H      49.217752206767663     51.174907673534150     50.608902114713374
H      51.114073600989244     49.570203116568692     49.480527297101460
H      50.690437247120840     49.649413490492627     48.903250189977058
H      49.593381939360484     49.583116373905483     51.170726701806579
H      49.312838083253688     50.546886286064620     51.186126935946206
H      49.310404244843880     48.985974916220805     51.088695350887825
H      48.858475510629148     48.577755526761464     50.838595677800818
H      51.125720339377430     49.303104807157027     49.060144390798357
H      48.786482828011266     48.955422119763725     51.153456578537508
H      48.814676123003942     50.162915383348725     51.603253889478339
H      49.988317043132213     49.195321556664226     50.886011985086853
H      50.325270711555596     48.549422674836137     50.034489303653231
H      49.643171084226616     50.498935331273614     49.696417214181139
H      50.567845670565049     49.036746002086872     51.056865938528873
H      49.042610362544735     48.692996928801925     51.687693232023094
H      50.521195167809481     49.734123531996723     50.557618120505580
H      50.069465227169871     49.153327584965858     49.615429366326964
H      50.871820807741102     48.415932035105946     51.252287582123046
H      50.531909811653541     50.118226859238341     48.467050723576016
H      49.134092861050569     50.415044468765004     49.485668605383786
H      50.566234602356431     49.824801459071693     49.667123506111423
H      49.131362493614589     48.346086295996315     50.149736675103860
H      49.103035027753464     48.164540506030100     51.386734178163032
H      49.925227590200087     49.855180080986131     51.582500288575957
H      48.131034475841943     48.430011511323812     50.646452290741124
H      47.753187088006442     48.838827868874240     51.016996892413417
H      49.224022020115960     51.872892452139446     50.294672280259064
H      49.963202136954123     52.153933148015767     50.415047317857457
H      51.324372876568134     48.361174456911172     50.603849497542782
H      49.440722078745338     49.159056824687958     52.005906613124601
H      50.952218568703493     49.520056373457578     51.530829229363704
