38
lj38_benchmark
H      50.000000000000000     50.000000000000000     50.000000000000000
H      49.857311180463562     49.290218227301821     50.042004718414013
H      50.414105822761876     49.445196369500742     50.293580845032437
H      50.390109847513230     49.237327119803886     49.459793100707522
H      49.778613461752244     49.341040791867023     49.022799003239214
H      50.756858387353354     49.094389386087556     48.954056921905902
H      50.266304414149488     48.861962161072803     48.483701617248194
H      50.666052291599932     50.241045949379142     50.305620706286305
H      50.163147883528069     48.879751380138828     49.008550228973000
H      50.900004205769669     48.719831531650378     49.528264040040000
H      50.147432200224202     50.259305835174906     50.867926570173680
H      50.286482985390094     49.941516610594192     51.469696033186565
H      51.028110308738569     50.582086800258736     50.750290283507326
H      50.195697907899735     49.832732704971995     48.909482246908972
H      50.217768895826993     49.882943311528678     48.356100073390898
H      50.440155659414394     50.294741495713154     49.408489545548058
H      51.500586141673018     49.178631330022498     49.454056142353814
H      50.584664996489309     49.764425790987012     49.472916453665903
H      51.417406156048607     49.897117890613885     50.854315566959379
H      50.680110886538756     49.704513498213835     51.159787764264060
H      51.342967593519134     50.032836249588726     51.458131162964136
H      51.520350138994317     50.774389009372911     50.280195572682764
H      49.475166711220950     48.931971074363489     50.505706516272838
H      50.490736225244959     48.407232211634273     49.532597514060143
H      49.402781642168961     48.554548327450185     49.870660415087229
H      51.134726233764596     51.118879850660889     50.317558025968552
H      50.444636314671712     48.108489208054557     48.498805773797812
H      50.362563008190037     48.886375375161840     49.864160024212602
H      51.108645791469058     50.477531605101099     51.264236383957901
H      51.222658040083687     51.359451156519796     50.946835137709691
H      52.008662680230778     48.880433578938529     49.036757024704528
H      50.930910701064057     52.003411298918280     50.951855853753408
H      51.952575267520999     49.832509993367488     51.658544727147031
H      50.583181297442692     50.134859252506168     48.713054251904609
H      51.998368591401537     48.372932617726974     49.299705606258982
H      50.109909823887200     48.958721274033337     47.798272581841331
H      49.856145831747156     49.361210302381473     50.666291633647255
H      50.797976243839869     50.975890364461783     51.475094801493050
