38
lj38_benchmark
H      50.000000000000000     50.000000000000000     50.000000000000000
H      49.853363847485504     49.233189453398452     50.064280096071030
H      49.350101826400468     49.824833918184382     49.836377551971246
H      49.233294940313378     49.028523067140149     50.391734951871825
H      49.638440012497732     48.949989829385586     50.677377425693017
H      50.190008963190785     49.121892269208381     51.052803264229766
H      50.092624685174670     49.019323749845242     51.587132874180980
H      49.058071233572299     49.359374504975889     49.767531990205384
H      49.679402704877084     50.061250925814328     49.459727780856262
H      48.519871446612569     49.309964961487701     49.820879937964257
H      49.926246364590895     49.307891243166793     51.961125933133843
H      48.444172363969280     48.988255781867750     49.351120914570366
H      50.288918051183671     49.088521181059498     50.291050621584326
H      49.828479395875839     49.809931154586742     51.256294842697102
H      49.652091209924244     48.747666339816256     52.184391731510473
H      50.796573944808621     48.802368682960307     51.198841399182484
H      50.045426351350002     50.040953759283902     49.069054430103215
H      49.383497813814436     49.208037595008278     52.351161404103678
H      50.349096988828798     50.608224158226321     48.689444862373080
H      49.441968518504275     49.430012558562957     51.855885357313390
H      49.943691380316288     50.056326437790148     52.214924724996685
H      50.259429622078216     50.227924206536400     51.763919430145876
H      48.120491313771119     49.235290761993518     50.200177492239959
H      50.642055722928234     48.244701194040033     50.880171840838756
H      49.667747016839179     50.858240263194105     48.691997035393740
H      48.130806414810429     49.794132804223452     49.982791574065310
H      49.561292615496654     48.189511505792254     51.634466909212243
H      49.790427853349961     50.591477412623114     49.708222024727995
H      49.861357140545977     49.589990201882962     50.520565479126546
H      50.757354217422467     51.025539976447526     48.570779430622956
H      51.310927528680111     48.938485644722306     51.220329899848934
H      49.299130163082289     50.873311802121798     49.174259699644622
H      50.357489449095887     48.767661299170911     52.412571766071466
H      50.120530845660568     50.252585049005503     50.779159828015210
H      48.700675027257077     48.597305734453471     49.603086442069397
H      48.181542055049675     48.536631959101911     49.193568099185107
H      50.250771163715605     48.542858102481077     51.074185737311652
H      51.164158592284650     48.084360447599352     50.673649061999079
