38
lj38_benchmark
H      50.000000000000000     50.000000000000000     50.000000000000000
H      49.704786686970344     50.677104363203533     49.783452193684084
H      49.959772017357963     49.209799764884025     49.983101479034360
H      49.475485078767171     49.432889079696622     49.546506427000217
H      49.297025714971902     49.099571641557006     50.372946896793074
H      50.333147995055633     49.282404420698533     49.477910621855415
H      49.284640624625993     49.904098179083242     49.485749656401758
H      50.592581287943368     49.747880286015395     49.559744855903780
H      49.320556715401246     51.139960493668767     49.373398747151327
H      49.838861422096826     49.560010152166811     50.479522256010753
H      51.147604624891166     49.789213782900241     50.131717235856996
H      49.032700249926108     49.925914226340666     50.079863194330457
H      50.115134305756797     48.475475846927822     50.185480178224871
H      50.299012170200086     49.506653176290484     51.105760832490759
H      49.568482152343293     49.971967048348219     48.739827964644910
H      49.002794703142541     50.522610563167710     50.313306922668708
H      48.899740008976153     49.392972055099264     50.585169273232182
H      48.739598274670520     48.944550813482721     49.863320875704254
H      48.949119044475069     49.486501845586297     48.602172286106700
H      48.685629991963047     50.438389659379411     49.832975971822293
H      51.815078920623229     49.654154694713746     50.291861695425474
H      48.410103842689239     50.411001045925666     50.491662483673856
H      51.520129177906703     48.909186395548602     50.260391490111395
H      48.201462601424318     50.745381841845955     50.962831982208044
H      49.895196516823255     50.181436229338296     49.151849037717604
H      50.036170727217232     50.266692128282429     48.363618787374399
H      49.489420700283723     50.860880052221241     50.545805956839743
H      47.716105254960084     51.207932473679108     51.064840827065197
H      48.164019965618238     51.377318554008603     51.357174054210134
H      50.105358582745353     49.561112964927212     48.940591075757489
H      50.247934598407390     50.917176377453572     50.080267467670431
H      48.685695879581829     49.456337520822323     49.220992314740826
H      49.733266166870933     50.301356313473690     50.852270415073519
H      52.279497505948974     48.967186198848381     50.517861520278579
H      48.587671270575818     49.031802556128262     50.777120750417666
H      47.706850266531433     51.409629614574385     51.819211831216826
H      48.737357403073318     50.986358547647249     50.269311183473135
H      50.564711004418484     50.504612815698430     48.064346847818214
