38
lj38_benchmark
H      50.000000000000000     50.000000000000000     50.000000000000000
H      50.555161930847852     49.630870701378505     50.208884553996072
H      50.662925830852458     50.261613718329762     50.330088721648082
H      50.014429003545672     50.091790484938066     50.535838012317541
H      49.498975482314009     50.352003762345056     50.755963257132869
H      50.306592826729457     49.645857442228859     49.423357904274546
H      49.816850713573572     50.472148272954627     50.199562055168201
H      50.659406482176138     50.235394183861722     51.004978674819213
H      50.580912868422132     49.052772527290941     50.037873177623034
H      51.088747064007904     49.443195377634872     49.609947890056148
H      49.988441425403913     49.224247871348567     50.563118689734246
H      50.324749418687936     49.873566799571833     48.823181067177487
H      49.935661446566911     50.821025437147362     50.944703014456714
H      48.975524148170493     50.718214645562789     50.703502593222716
H      49.706232885270317     49.090064261463958     49.873524178755844
H      50.148518614896830     51.432356682195412     50.685296757341021
H      50.133114941606756     51.474013096024940     51.342554053310536
H      50.743715064269090     51.077082321665124     50.284254423138435
H      49.696251151173527     49.291177750391263     51.127819289533235
H      49.408657159674284     51.750026380863105     51.282514057837162
H      49.005709498286564     51.921529362294265     51.887942920580862
H      50.019454533141086     49.323794643911398     48.471205564826796
H      49.239909998188487     52.032838211228785     50.755527262434796
H      49.303339995704064     49.798820984003662     50.391365988721034
H      49.486397964550108     49.315679584345219     47.991976286479726
H      51.541339681812389     49.942951301600566     49.839918488742271
H      52.120114203408015     49.573564682392607     49.523472863426505
H      49.346303261327300     49.335234942149576     49.485516529552051
H      49.958677080951873     48.359532332002942     50.002483359785359
H      50.510777959364205     50.232483377291970     48.513939787146931
H      52.454716776196953     49.405750039991609     50.232078494595996
H      49.378184638083674     51.136310704332445     51.220018275546977
H      49.435003485969403     49.591189818984468     48.763082237201452
H      49.404121025706232     48.341988575365605     49.442520168561494
H      49.809182921725629     49.803221410588364     51.226585533884290
H      51.693003665683442     49.872580563808434     50.392945852363745
H      49.354640711786423     52.375519933379209     50.241967119720755
H      48.828002113391619     48.529223227774096     49.134438428674514
