38
lj38_benchmark
H      50.000000000000000     50.000000000000000     50.000000000000000
H      49.533707841698821     50.032367378903686     49.555213600999657
H      50.179308250832364     50.419021950246204     50.579610496391645
H      50.272517906772926     49.863936569922423     50.470513438848215
H      49.834912933095936     50.586549354135954     49.628712570088453
H      49.022727003979966     50.521079188930521     49.883497045724965
H      50.524350190077698     50.075556336258487     49.499034934423484
H      50.259862718004356     49.158092833790832     50.721597410267002
H      48.470614435547816     50.806180230263131     49.872242992618013
H      51.111481432938966     50.374872778048761     49.694044855730944
H      48.460793051525307     50.807897545770530     49.257375237593585
H      50.613749964715588     50.905185447800250     49.851644977828897
H      50.792448874976735     51.547023942448632     49.468818288483554
H      48.303567098026264     50.266625788126191     49.696645015365092
H      50.973371934540914     51.332945447680522     50.183532848869120
H      51.302636364180266     50.947361349818095     50.301311333716370
H      51.840192270666968     51.306389597366504     50.541544604876144
H      51.263854840983498     51.365551267958409     50.913201064015141
H      48.291215946832303     49.589534672421919     49.401679874859951
H      48.548272688970243     50.318403845016064     50.385203657734166
H      50.636606150250110     52.263566268803842     49.765335737812499
H      49.029862650727182     49.703443590106751     49.685357747578038
H      52.172095527462638     51.524865957357257     51.213143827135546
H      48.303792355933503     50.793737246859642     50.649378994038670
H      49.636349313626923     51.169463372139397     49.556913279321314
H      51.811314732546670     51.681652205051719     51.891182495361193
H      48.471310991581042     49.357909941801751     49.924487466264225
H      48.552337965248554     49.725461254421866     50.611143761580628
H      51.832548400906404     51.966292472867842     50.837169736734033
H      48.467253176123620     49.327111143778005     51.222118757668987
H      48.508357817968168     51.361762170060814     50.004512526202703
H      50.812369192113898     52.356090809859921     49.061543110001338
H      49.930646336456618     49.816662387525149     49.115421415332804
H      50.316520270781105     49.462867731628094     51.448295999024452
H      52.002232686288124     51.925196070121203     50.291221761422968
H      52.542712463695452     51.842205444399369     51.519445482930529
H      50.229762123738418     48.999622283261431     50.122222239432631
H      49.826328342729276     51.458084273849202     49.962757425113466
