38
lj38_benchmark
H      50.000000000000000     50.000000000000000     50.000000000000000
H      49.735282798537447     49.263383619239150     50.189940768560291
H      49.615484072155972     50.337614172028147     50.416998148104817
H      49.395524217735428     50.704426749211045     50.761563124794122
H      50.582740472481717     49.957157204542980     49.523034372971523
H      49.656377659524566     50.235721044747649     51.288983888852812
H      48.991941078082519     50.287165839349655     50.362502853438173
H      49.573053251248297     50.224633410781088     49.698024118542875
H      50.340601143495554     50.470233137246872     50.188068531906957
H      49.008735296194807     50.216863247896825     51.476760159393820
H      48.394266071231485     50.065405741914951     51.154883326074739
H      49.623561053733376     49.018853353042665     50.761747815297653
H      49.597469797808863     51.156729010546549     50.447213061386158
H      49.171410937944160     48.537904856508113     50.535891883797717
H      48.504143414639678     50.723007242926769     51.824918712484688
H      50.456726904235751     50.129858139503170     48.815302047176900
H      50.171178541042480     50.087001238215734     51.818569891625216
H      48.681730564428690     50.954500787264578     50.887136055885264
H      49.454605400024974     50.790103153003407     49.923128549408872
H      48.884159466104286     49.585676649270681     51.795185190184675
H      48.490452770558711     50.443641208567975     50.553577822393208
H      48.387631621915432     48.496291595013467     50.666008804134428
H      48.056344694638305     48.230970987735994     51.269645463566505
H      50.344497171076981     49.857361408554191     52.488794058830159
H      48.008897856020134     49.605408130978624     50.864191322130878
H      50.260530512124582     49.080295580428192     52.369332796578711
H      49.621648464607105     49.356901773342827     51.658468796423563
H      48.041887119055993     50.717290975846893     51.510455917729800
H      50.930258553675671     49.712212132718712     48.949989258095599
H      49.475740623836622     49.206704814058078     52.271947562109254
H      48.830889921980003     48.638478506038837     51.245815857162142
H      49.461697123157805     49.719456425224770     51.129833343261097
H      50.281492238679668     51.448916609133001     50.510567032969256
H      49.513780456137319     48.303851611071885     50.089419043203748
H      49.359644451579690     51.823603566905518     50.646370983118111
H      48.478980921498966     48.748161097784596     51.794137531921535
H      51.068298000959786     49.964410403897311     48.348472395456135
H      50.519114171431831     50.710090595306553     48.347024441554801
