38
lj38_benchmark
H      50.000000000000000     50.000000000000000     50.000000000000000
H      49.451901637982218     49.643006271580802     49.941116814758416
H      49.161562481938354     48.917123340070503     49.779467346503282
H      49.498276134646986     49.152509879947274     49.144687530917018
H      50.376200849539508     50.259001453473054     50.599453015061684
H      48.643638348767098     49.199287852053914     50.175924123118030
H      49.902992943592977     48.790049384310912     48.626670544719822
H      49.364662442907083     48.435987651393106     49.165056891246181
H      49.225868906386786     47.764434490893422     49.162455045194946
H      49.266024587635194     48.339449806458653     49.654976804912785
H      50.082206390045620     50.697857261146936     50.972526851929473
H      49.814947857109352     48.174822954948681     48.858115444435036
H      49.476377167998749     50.203128302198756     49.628089407529295
H      50.186730217335892     47.867911600913757     49.456856284753265
H      49.772477376085533     49.674715021427360     49.418527161956966
H      49.505705553449758     47.359373513378557     48.936501394888786
H      50.532146823442012     50.966075974695777     50.495483397583158
H      48.456794489995119     48.944405821679752     49.783412698078813
H      50.185612703655089     50.951708713963640     49.897316901392671
H      49.895272292140554     49.226163097274593     48.323692480957952
H      49.646234686888505     49.164325376239773     50.339834359189659
H      50.981343842976912     50.498237626743666     50.549001639732062
H      49.357218560106595     48.899072579417911     48.173853239707292
H      49.001844009936612     49.623259916755508     50.656390620427707
H      50.230189176568508     48.882897631829749     47.954329001445387
H      50.576025946489814     50.846161547205057     49.445461506405806
H      50.347001659582865     49.577866737823506     50.336835482337889
H      50.811295326569365     48.504012560631068     47.572727566409249
H      49.768613782781159     48.516028687936327     47.416115955818071
H      49.729766209944060     48.518796863039825     46.741743920644929
H      48.844196475236259     48.589061356461137     50.016046478155651
H      49.336877509268575     46.818507557720089     48.563383329655530
H      50.920698755220464     50.749223340897231     48.807560602723306
H      50.551337436696478     50.376317898929486     48.681227844436613
H      50.670108446544994     48.902476033153505     50.271003468007500
H      50.591666965668260     49.747141428628943     49.030640355068293
H      50.781618943828263     47.821185181710213     49.001468085316382
H      50.567417314887877     47.518415522342245     48.639446615527596
