38
lj38_benchmark
H      50.000000000000000     50.000000000000000     50.000000000000000
H      50.003770019430419     49.756774172305043     50.603631655692659
H      49.985974022168584     50.513384872561787     49.987347343998465
H      49.725372887369744     50.920764381645697     50.493550419432552
H      49.259193806330472     49.879366436140806     50.162587263329442
H      49.597305625003088     50.061421901913960     49.561678458465757
H      50.488448783798553     50.543103500525831     50.197389444856128
H      50.145242456794321     50.370343394058359     49.132663433984490
H      49.909187605429544     51.662283446392600     50.653034395701042
H      49.489614053057046     50.226375199379653     48.780754744054285
H      49.831021300909384     50.793509565543175     49.349432111744882
H      50.405071358101189     49.531958918220546     49.879008059717556
H      49.484338561134138     49.293046003548007     49.874205644138492
H      50.291672115372620     49.955663407849364     51.055689668407027
H      49.770144499686438     50.401722343925243     48.070273875656973
H      49.033179047473048     48.671915377583431     49.825228214485378
H      48.983005858144338     48.565296760811805     50.568606498222465
H      49.629831705218983     51.084972586300445     47.787484706450840
H      50.510918237338053     49.204311142765391     51.224563331894771
H      50.306489375907596     51.982299955011456     50.221140865402177
H      49.814552756450276     51.353923304803907     50.134036388850411
H      48.845613640758565     49.152531996508181     50.536973103476178
H      49.208815601993372     49.259257933730069     49.376735802873782
H      50.035574093455537     50.876886228860251     48.107162378679334
H      48.529700602091459     48.427632088934288     51.153474721454259
H      49.893990894407573     49.995830315981699     51.373160123102885
H      49.999140147884049     49.321341392113929     49.468264645363632
H      50.750155445622312     50.163055052728019     49.926434931911182
H      50.557630758695673     50.255276190026180     48.608578158600771
H      49.704154147626248     49.800294604404378     47.553017848190933
H      49.043316370635949     48.055198963902953     50.997028474957823
H      51.100478833796011     49.084600534390553     51.044446311913916
H      48.920419752555112     50.659209988468454     48.641960745098984
H      49.828657482046822     52.185624034875502     49.896038003689867
H      48.534085471929252     48.644475972794602     50.043927263357212
H      49.635092669748559     49.489365268257302     51.267461100713632
H      50.043656514265962     50.448470291509182     47.398158678645032
H      50.220191416118510     51.462479942488201     49.796082495046285
