38
lj38_benchmark
H      50.000000000000000     50.000000000000000     50.000000000000000
H      50.259989170558256     49.604866090451743     49.664942000488630
H      50.241907861097559     48.987073975131672     49.772790863932379
H      49.806608590244096     49.425827449450779     50.291099634037614
H      50.222103092866625     49.243460087463745     49.088544142181576
H      49.520939886366001     49.405355285521573     50.719376674850309
H      48.914249641571132     49.816656553104508     50.710668658479918
H      48.730839521307267     50.210836966201668     50.274582976084915
H      50.717406530427063     50.251540725279419     50.029399545002640
H      50.898275503512522     50.976333672747145     49.827758504480542
H      48.155083683530037     49.858546540877441     50.963035864097961
H      49.183413480807765     48.953255572202593     50.427348571198330
H      49.767333774794572     50.341017341096325     49.604034012322224
H      49.832777355041742     49.518005940790331     48.536620192480086
H      50.919799762662443     49.816427109287851     50.591717989641083
H      49.180043815176781     49.856159394360439     49.615726467724059
H      51.321103143439935     50.102025895224180     50.982478034348560
H      50.429861275096215     50.484374181917730     49.388845213265078
H      51.588969411184010     50.270932944739741     50.243266649526120
H      48.286370262423731     50.323851243922704     51.154382176489520
H      49.846607106081592     50.968160555849217     49.877243800290714
H      50.481236958063995     48.664799430208987     50.323207452718442
H      50.236548709524136     50.570888858417213     48.917216439568413
H      48.507017024058641     49.689328250440063     51.293054669216630
H      49.354633756899808     49.827831413198105     48.621985110281720
H      48.770368366555012     50.092619707867009     48.867177676822422
H      50.456153820836583     49.702545498195477     48.282945934342251
H      49.568618153121413     49.859413652798381     51.341633343213061
H      50.948566264900826     48.272877389179271     50.115316629087026
H      51.253126544185761     50.140397717443655     49.727405439124162
H      49.274771697416469     50.615115692341767     48.749793734784262
H      47.791234488373817     50.136987269183741     50.642668468931525
H      50.033755861460236     50.702159281596622     48.233274758721393
H      51.471824848496269     47.864070704363762     50.309157493637954
H      49.514852490980992     50.579774280170525     51.639186782885879
H      50.498314415374743     51.274245013705411     49.677448828437484
H      50.669674223217271     49.372466562914887     49.436670900298282
H      51.149265099419885     49.711883663513142     48.274364075029943
