38
lj38_benchmark
H      50.000000000000000     50.000000000000000     50.000000000000000
H      50.480391852708813     49.611086842760912     49.871850660095170
H      51.134855266796059     49.828617671921194     50.162167846923239
H      50.712998966545577     50.458596495189468     50.212956987736021
H      51.430355362703189     49.306628849044721     49.786694484637074
H      51.031178194480432     49.736694581319853     49.263686723222911
H      50.361865985135147     51.051644926150431     50.246470947338707
H      51.055131626922417     51.150544558408001     50.544489923811703
H      49.610564443207181     50.598112673088799     50.066233218413601
H      50.566923733879591     49.285203205901517     49.036412516919313
H      49.107575286951693     50.798778897044578     50.349056325081968
H      48.830665361071460     51.372788552810931     50.147122965012564
H      50.586936900152949     50.443449623844955     50.764079659944102
H      51.187526680994132     49.316777810141900     50.732228987854171
H      51.611214507689624     49.658226954046228     51.242523066566868
H      51.497346152347546     50.221141071282233     50.721769883339171
H      50.576433386385993     51.505498935043242     50.938704717791552
H      51.326232838659934     50.019987434278342     51.779052255087940
H      49.499589261451753     49.404189383842287     49.939496109105590
H      51.001748993951601     51.161333133662112     51.087194256111772
H      50.319555592439372     49.089164735524456     49.693795424977210
H      51.180401161807048     51.640663096440534     51.430973447447506
H      50.520314606455408     48.803031066152442     48.885727666632036
H      50.018187381122729     50.550006741335409     50.442292047644877
H      50.872977820015393     49.882245198546997     51.046215860561034
H      49.479330826126798     50.207331050346895     49.379914361621097
H      48.764153077615923     51.263999783181276     49.644335177536426
H      50.706206612120290     52.279256933572391     50.983794862627299
H      51.212584106039031     49.805850719681445     52.254789004307177
H      52.234494091524027     49.634280689956427     50.868137772541488
H      50.347347797212208     49.838306975632896     51.652947232820807
H      49.085379905666933     51.850423393205666     49.783409402179835
H      48.495947355538121     51.441917062470445     49.170172938568385
H      50.760534480796551     50.285927224982444     51.367473255651085
H      50.561555332172780     50.941107184406988     49.651746643907885
H      50.819803778686072     48.146490611187097     48.714355968722430
H      51.502486064365328     49.549736808778619     52.591239669271076
H      50.604531151071633     48.419578066028535     48.232064486587774
