38
lj38_benchmark
H      50.000000000000000     50.000000000000000     50.000000000000000
H      50.000023799958527     50.682704388914708     50.019620711724833
H      50.539931428425284     50.129162683876920     49.901080572689089
H      50.351598269203940     51.272716111459921     49.644889253763175
H      51.097262759438159     51.474026808540160     49.443122121927246
H      50.593973132824829     50.472530710057967     49.490951089417706
H      51.303286243864733     50.733115787611602     49.209302506771046
H      50.644292030689464     51.175619831071600     49.133534475479351
H      50.591525416896800     51.853948013855607     49.167095377420040
H      50.854488971670044     50.577391931396896     48.720496533616355
H      50.748251630302647     49.432417186125733     50.066075702452551
H      50.886310010989163     49.193904881327498     50.566481600893596
H      51.013983176858268     52.053450899889896     49.545692135989739
H      50.588455036868353     52.595166854300295     49.634158903782932
H      50.143736713538004     49.177038934914506     49.599348482326654
H      50.999987853075908     49.972358113692110     48.598566622458556
H      51.466322212854642     50.532421509653766     49.667103366499965
H      50.233159588054235     48.850045947810393     50.643988938663441
H      51.209356889990808     49.850653097721995     50.677527483582772
H      49.463619268831181     50.231335976725759     50.390864590395637
H      50.848731940595236     53.240787253789620     49.423447524817639
H      51.168515079970589     50.817931561626459     48.021630680932418
H      50.576370891582023     50.661411408461163     47.880756975010847
H      50.737547824673662     50.206318673100505     48.218506159594163
H      50.188311869351665     52.071590613275987     48.778221699280543
H      50.278203003324414     49.383098039301728     50.454192668224941
H      50.757286496982744     50.264254619452259     47.402109609750845
H      51.032198190772718     49.667132643736835     47.330749224704583
H      49.051450157221517     50.615313288255308     50.684738192939186
H      51.148025274556701     49.713379916385300     48.054286012107916
H      51.575202236641807     49.131981574538088     47.935955633688380
H      51.563834327920681     50.993900863122434     49.930766059871203
H      48.891546637620181     51.179899729626101     50.455720798346320
H      52.037331099622513     51.237845869524278     50.451789306386566
H      51.795038061794116     49.466227070053030     47.348041537156021
H      49.923133118657589     48.595413006609320     49.759722577093797
H      48.587560568358015     50.540413665115437     51.000991192977999
H      50.647275023763868     48.900045708672408     51.210668190154919
