38
lj38_benchmark
H      50.000000000000000     50.000000000000000     50.000000000000000
H      50.387328736907037     50.015932290730625     50.513736421586763
H      50.078662419509421     50.530981236723783     50.888017700933446
H      50.354274244636535     49.317596294084211     49.870509615360774
H      50.337249502781049     50.622690074165781     50.023963736680159
H      49.822573465485746     50.280618656389514     51.461071598530161
H      50.398017137726427     50.873254785882146     51.058581128508578
H      50.009836034493155     50.650753514052099     52.102264825323132
H      50.829361269356987     51.287768769759118     50.941389322104627
H      50.947480644289463     50.242406240969693     50.157352347876433
H      50.449002536270179     49.958215141670578     51.618316181559514
H      50.716998463860534     51.735755961306239     50.334904979681411
H      51.056823845587544     50.743500720474373     49.765775312477032
H      49.362389601270486     49.842927208628623     51.112755547037104
H      50.473474905297515     50.476063733657497     49.243228210833422
H      50.031764719692532     51.104838037227324     51.879591727389098
H      49.839300973672458     49.296955155798344     49.404345279200555
H      48.708054020100498     49.410100124832510     51.110599931196745
H      49.718893132506906     49.740793067157973     51.627724479924076
H      50.155145209486889     50.039567971441848     48.852468929693003
H      48.752703888711366     49.142435441510337     51.743347861523013
H      50.221830157130732     50.366828756565795     48.148099220175062
H      50.345202314969512     52.144952748686102     50.662812286219427
H      48.300684395340262     49.327978026393737     52.367610171794773
H      50.044906692345478     50.298987801935382     47.634960823319112
H      50.025607047663620     50.095261270833468     47.110049436263402
H      51.363789164048868     50.827571292906747     50.194504275357993
H      50.199798270925108     51.285169272448549     50.179815873569133
H      50.854054905339339     50.591933287247770     48.150623511996990
H      50.399906299039486     50.272625309110474     46.696498600151450
H      49.653088605377739     49.679749600942188     50.616837674837541
H      50.674026342817299     49.554422385541081     50.457976101631935
H      50.940953652296834     50.322642797125695     49.453538301531843
H      48.801766633289290     49.634943170382535     51.582460899037713
H      50.884494054266384     52.429637593676887     50.148721287094155
H      49.411603559325286     50.489597310941178     51.678071065393731
H      51.289348383888488     49.537357286204326     50.304705025702312
H      50.376755240712797     49.828511187808964     47.356997658297779
