38
lj38_benchmark
H      50.000000000000000     50.000000000000000     50.000000000000000
H      50.536007647693296     50.157081330223619     50.391149869936250
H      50.618075090188363     50.663904819302878     50.441681900002955
H      49.665531515828455     49.757531711455343     49.685004577752132
H      50.458725990493811     50.968689204297839     49.906339161039320
H      51.134970661039134     50.824036442805614     50.648760039472180
H      51.131104721024251     51.382259982114419     50.648998907142271
H      51.693964187948403     50.852371768892837     50.299974944727673
H      51.351162353097671     50.641327275124880     51.272438417885034
H      49.401702234645462     50.269053002826745     49.427606850036312
H      48.993077293828065     49.518086052634501     49.472680518133956
H      49.099232371622378     49.109563332674306     49.206224337266320
H      49.857664465778946     50.667172326830077     50.357313792500769
H      51.589173372201188     51.972076473323661     50.415884891060479
H      48.851113704630102     49.313205101513496     48.492151320423517
H      49.842366054432084     50.431247430068531     48.881296284927402
H      51.190954749129212     51.065003946375853     51.619746312999723
H      48.817657486086937     49.555959966315541     47.855974951796654
H      50.763581227888267     52.085929510019753     50.634002671708572
H      50.339887991686972     50.552585669228705     48.461388371505265
H      49.346444910791256     49.276264169653949     47.437129407644981
H      49.514974348468122     49.648972600647063     46.979864578380550
H      50.889192932340897     52.292804828927892     50.027915168585004
H      50.983195454100361     52.408630745855675     49.359135020110443
H      48.498349984564996     49.554170413703318     49.427983782760485
H      50.104632588435138     51.852263678511633     50.858981521305274
H      51.540011001433022     51.068173902351525     52.005283968238942
H      48.924522635490916     50.558998242110327     49.228387395313916
H      49.369498329499898     50.861597029917888     49.507590877467443
H      51.799259109891310     52.686176367415271     50.253784650368885
H      52.218946739428944     50.442675020187814     49.928924811668850
H      50.742509090352307     50.757026894585856     51.900872640544705
H      50.839328702284249     51.982464421792770     48.781680886051504
H      51.534397524213603     52.008589095312146     49.613579251725398
H      51.081979352105144     50.632421442129569     50.058791075244606
H      50.343968057906771     50.223769863806702     52.354093462575513
H      50.287020160584746     51.156186627778816     52.280434446208844
H      49.043476541410342     49.986485473518037     47.144094941140409
