38
lj38_benchmark
H      50.000000000000000     50.000000000000000     50.000000000000000
H      49.918259165596915     50.416194967545742     49.541678454747114
H      50.342820317743936     49.559821474126309     49.509087514193162
H      50.255349457689910     49.842879820098823     48.799301734242604
H      50.581617990431845     49.344722104815844     50.222344717802741
H      50.286830447588770     48.886701592681717     49.785774852502023
H      50.936540481824693     48.779449652376336     50.513786115322361
H      51.490812091148214     48.585659763230176     51.048012116479732
H      50.517308096593403     48.552200949713949     50.971401626098555
H      49.965950794343058     49.073780003169354     50.355201529995576
H      50.660533130024497     48.441290926593489     49.805689815901047
H      49.880450264509548     49.606402183026027     50.282135046157549
H      50.705987078923002     50.018293569012904     48.930463664058308
H      50.860180034035963     49.365331324965531     49.197200343926113
H      50.846039155306045     47.884885389461466     51.063635781684127
H      51.081393123346778     49.948443187994343     49.706953364366200
H      49.179716248096213     50.629506583960648     49.464940696735994
H      50.884985068726351     49.190185957276299     49.824633802711013
H      51.450204637906069     49.347123961243689     48.663168923178404
H      50.552611248614845     48.015925217549018     51.491883809009295
H      49.408322416677464     48.626915749286098     50.483453099627866
H      51.298830026303364     47.885274013367592     50.658831399593105
H      50.856318039998897     50.490836220520563     49.839316855727617
H      51.836789086160465     47.412876097688624     51.002350573878978
H      51.822502730897632     49.776087624705788     49.859936350312253
H      51.782414154384860     49.201466160070837     49.283586457380743
H      51.374358133220454     48.830779009415544     49.706824540862996
H      49.554694022928295     48.871153072883104     50.943735965608099
H      49.125396714816453     49.340647100942363     50.712055242420547
H      52.416901095270717     48.772304172646358     49.044588651141488
H      51.303187851875308     47.690825220094624     50.131484668383330
H      52.748818640008714     48.412001748465940     48.825642035406574
H      52.534824005632395     48.574467949940242     48.202991239757047
H      49.787402301600643     49.603331630954422     50.865656536243044
H      51.941723530838047     46.895926866115126     51.487267582056589
H      48.957575293923782     48.893953671517608     50.424103582224696
H      50.334978494165988     48.877304910303415     48.955496006201301
H      49.571625774933125     50.103853114852477     50.713496399053284
