38
lj38_benchmark
H      50.000000000000000     50.000000000000000     50.000000000000000
H      49.303619725634796     50.375197198947959     50.084994477730895
H      48.890380806844647     50.576899122355194     49.799067706836098
H      49.471988236199003     51.031523110177993     50.059918426518323
H      49.728897642280884     50.804113694799568     49.445282602817855
H      49.187621717048181     49.912182580257159     49.884047309248984
H      49.706153735585346     51.680203077065038     50.378616614151731
H      49.389532319843966     51.207782930321514     48.894768777367290
H      50.428691483449100     49.400651682503231     50.151962410049968
H      48.938874923199720     51.566464429834497     48.435394694144698
H      49.573460557076942     50.595618319704350     48.594277091436773
H      50.829798780170321     49.690212409728517     50.202329863191792
H      49.506569412017555     52.200611304467479     50.317117323995582
H      50.085009336565264     49.914131701799789     50.562207290350976
H      50.057680203824944     50.034172020462563     48.827115742128733
H      50.031526255119637     50.887829935284877     48.148205725002114
H      48.851431736678990     52.154674867688378     50.159167361948533
H      50.676548825747510     50.018479342317171     48.891862845623713
H      50.348885871506369     50.166622694321326     48.135151217491305
H      50.717208737275413     49.591673313355713     48.481429981479017
H      48.758667024158441     50.459105848385924     50.625421132650082
H      49.082025134068182     51.090616763936083     49.580509561301767
H      48.156270042412729     52.001351151568471     50.337871234120506
H      48.519759852033310     51.120784416595740     48.581916702107776
H      49.342363846583758     49.862128936128414     48.970008673213151
H      50.383667072800144     51.390692870592304     47.942400109826956
H      49.245074053616463     51.434390525433059     50.681567154525311
H      50.777195275369358     49.969125591461655     47.722324467636398
H      50.292167092090281     51.635120347990892     47.413318358042545
H      48.901203893666178     49.903662140494923     49.425873375945521
H      50.340696455202426     51.289327786604176     50.124298060737530
H      48.402346768729132     50.635414852950404     49.951067821334412
H      49.529797553829830     50.659229774595453     47.791229305001117
H      51.190799019313594     49.793853137209716     48.380124191890509
H      50.742684240347955     50.341549403315149     50.558825485010573
H      49.880324215157046     51.605346153917900     51.038321457176579
H      48.001824188637343     51.394801010929356     48.766844034843615
H      50.068054725224627     51.131565683888361     49.117578932529753
