38
lj38_benchmark
H      50.000000000000000     50.000000000000000     50.000000000000000
H      50.297777680663089     49.430414724215630     49.722622143798880
H      49.997057702292416     50.255180474067338     50.580274634292941
H      50.556231942015273     49.790508641489950     50.567661046765792
H      50.696522019171823     49.249713051569309     49.312382755245196
H      51.249044494192439     49.850298393217429     50.591568772434854
H      51.163475408829377     49.461054930680923     51.048559563220422
H      49.766695651767279     50.877384506010259     50.205962128266094
H      50.572385634864744     48.534400985162392     49.050455434844970
H      49.443900088826467     51.280180063332232     50.360959533926582
H      49.136965706252603     50.952096742520510     50.777275478928892
H      51.229223530921729     49.350386282321431     49.342135128381749
H      49.647897703891985     50.010488546626704     49.408375907274618
H      50.937473371534580     49.051551118201154     51.399592286557557
H      48.505929978833365     50.722919062660139     50.719751946213734
H      51.110434911672108     49.257891351152949     51.947179763430064
H      51.625908449408890     49.618315169743205     48.902578099509235
H      49.781601560598567     51.676348317058938     50.604699683152191
H      48.465966873677935     51.268552510223117     50.457691089567753
H      49.150728230362169     49.748115469867358     49.108048035795456
H      49.183163910833485     50.004070471600720     49.917776719400550
H      48.210270162274213     51.070399113157272     51.303226810356186
H      51.389948415672855     50.023370122148052     49.275843988541688
H      48.409551952130514     50.732724098245640     50.015987255504193
H      50.755287643942161     49.749416622621602     49.862122148779285
H      49.411207156384570     50.433620541103721     49.086751123904300
H      49.521894261083652     51.976407087487374     51.142723317097840
H      48.830185469462563     49.441734303112831     48.741539599134597
H      51.462945225834808     49.170380768123486     52.567770988831285
H      50.246537045565667     48.907178434443921     50.289369025861255
H      50.901468950370329     50.582143707773874     49.256655554241114
H      50.550034852408942     49.548949308196910     52.415162593627841
H      49.679753756271580     52.170443412910245     51.671433956322637
H      48.570489293122797     51.722190687922115     51.429412326070789
H      50.752804905573669     48.742619979697125     48.404944251587352
H      51.897714475775949     49.740259967784148     48.164813563361022
H      49.952882026812617     52.328188237894715     50.342095882504154
H      51.531420396635099     48.634161973336013     49.237130810707043
