38
lj38_benchmark
H      50.000000000000000     50.000000000000000     50.000000000000000
H      50.590843271325951     50.046999014277709     50.256843219674906
H      50.791817012955875     49.507924990579724     50.122811967930737
H      49.781217188774285     50.563791450160139     49.637710770557121
H      50.246406587822385     50.301576680876515     49.133646637563537
H      50.845035075428584     50.760349113514359     49.135658806902775
H      51.308395827810642     50.543825206008094     49.456717992476776
H      51.783688541866468     50.448532663678563     49.722042918979241
H      52.049635047054586     50.306258986774893     50.191138171992762
H      49.468304810122028     49.604401337339418     50.131759184241098
H      51.349048982531109     50.410343412660197     50.423539790374825
H      49.263386363459674     50.851915282901309     49.835942898519420
H      50.066428389213009     51.086312640404188     49.844008823079143
H      51.494879873265532     49.942140454511716     49.166890672288289
H      50.426472357235717     49.149051418536786     50.540576539912315
H      50.893774994451611     49.838286846017375     49.133010988598734
H      48.473786340314341     50.956968367365093     49.908251040766068
H      50.228774135626274     51.710179755330870     49.778796020840467
H      49.304395160041295     49.079516479273394     49.916039562599984
H      49.764292649519398     49.003982061202819     49.312259326646789
H      51.074608578793509     49.910850722459976     48.643166609026977
H      49.885597098796332     48.402277567677906     49.777396702007600
H      50.169881910399866     49.786638243883587     48.942306916177827
H      49.658754883856247     49.276064680747574     48.768142045799699
H      49.686882909170116     49.782079637476194     50.752713606771124
H      49.232949018510325     50.658587918051310     49.172882828459066
H      49.487884869505812     50.267331279816617     51.024543702698509
H      51.283873665581567     51.133737624111689     49.189540891769148
H      49.518510989321989     49.472272951944063     48.060042300660101
H      48.957236987505226     48.835759228559390     50.378652408894972
H      50.817998468603179     48.998150883460355     50.841757569671287
H      51.081951151258281     49.397681125427056     49.369031785907552
H      51.751602972203116     50.985581317773018     50.528770990248944
H      48.878522528435674     48.317098795919527     50.293286391217769
H      49.405221052993312     50.112790358286929     48.271608213382365
H      52.439600271403933     49.802504262053603     50.109495834852794
H      50.314302123064039     48.904310108939484     49.205723456749311
H      52.086059573358305     51.548076399233089     50.622575199580560
