38
lj38_benchmark
H      50.000000000000000     50.000000000000000     50.000000000000000
H      50.405740502161620     50.353914543446599     49.540131551586825
H      50.573817759315439     50.732428761579307     49.107318111231585
H      50.048002076509640     51.258833084592752     49.080382392306802
H      50.126095052959961     49.408319714119180     49.767636967514278
H      50.472352816889526     50.478435606318897     50.061984805784739
H      50.765365925267155     51.374420182592331     49.145023987974511
H      50.232957062005475     51.283966889019084     48.394008335738775
H      49.870531781759311     51.943798744383592     48.514089391078507
H      50.402015110085060     50.401314474814868     48.453538344788399
H      50.845931846420442     50.786543948745305     48.333553941268242
H      50.189171615078124     50.823343063801381     50.438201535912974
H      49.905821718059265     49.736536807001393     49.075741041189090
H      50.373219945983763     51.143849754349155     47.639345231604693
H      50.912563897301659     50.219739434392999     50.475840832661426
H      51.548709984572127     50.248778160814958     50.729299210085287
H      50.973196257078570     50.673988769188405     47.688115700889803
H      49.665162928091618     48.819590084339360     49.762780106532318
H      51.246878003142847     50.554904868754583     51.326982760751079
H      50.187423779612182     48.618685499664608     49.662923562087656
H      50.873918642889144     51.828146141149439     49.632874286090534
H      51.064693369534595     52.567677648693547     49.446783825652041
H      50.206521949075551     52.504490018128045     48.223964673488268
H      50.815807108913035     49.117109861779525     49.497045101967956
H      49.344386209340954     49.992745641293624     49.178164701322579
H      51.137377238519299     53.355896925231932     49.532989737898461
H      49.953582677091418     49.804211274827075     48.429553264105650
H      50.989437229843958     51.061797707998544     50.825669605999849
H      49.285048737135796     51.699258744671475     48.180266643158213
H      50.324288544443462     48.626758768030172     49.168032530793035
H      50.234278817572637     50.592100586120864     47.435627397197145
H      49.870958335441635     51.567770289750079     49.767045465511906
H      49.472063159925881     51.758736304372121     50.272731247661120
H      51.258176512702534     51.154467270676655     49.476653429171805
H      50.836138285348817     51.568876018046133     50.933082022198988
H      48.615795815879437     51.296152182611273     48.250251320867648
H      51.310594069469630     49.903303627505665     51.072352770870971
H      51.621401003582136     51.432426317503918     49.130403117903711
