38
lj38_benchmark
H      50.000000000000000     50.000000000000000     50.000000000000000
H      50.080666374238803     50.478497347720371     49.564335281268718
H      49.482238875951317     50.453654415901312     49.156138701564096
H      49.512792025692207     50.626358643768228     49.792394141790780
H      49.463021655623166     49.891000881856748     49.075078103597718
H      49.233996230022939     49.364203641819202     48.514901563987820
H      49.514467342602813     49.697903188743801     49.715819072962802
H      49.895999883176266     50.888785504748142     48.837078668667345
H      49.788181588746852     50.367910181632645     50.356943826922972
H      50.728730213736078     50.520374061717021     49.099945830436958
H      50.824816809688024     49.835377394070427     49.367420971910370
H      49.475796012140286     51.392015296540897     49.942254738832069
H      49.374343678014185     50.968016354517104     48.238977695838329
H      50.418451371145132     51.006215215556075     48.597129747659828
H      51.493397273304282     50.059140208997789     49.086161394540184
H      50.462221198568194     49.438056140733600     50.043777413935572
H      49.369938623770217     50.489229570889037     47.735771896011016
H      51.065148203663028     49.116070270950154     50.394970869539712
H      50.676391010544450     49.642379834687397     50.738168549580649
H      48.904293125880777     50.077409801120346     48.051160888725619
H      51.405964983844882     49.193113621594662     50.909377147477443
H      51.763702686021738     50.324510836060178     48.573084269204976
H      50.029919297309448     50.959218426341970     50.038676832481272
H      50.361455167127581     50.280700428108609     50.860337976663807
H      49.103844622977611     49.758392749380498     50.000518185389538
H      51.995781209381065     49.478067465157174     49.266675151874274
H      50.898598806310979     50.598415453290770     51.005745481990658
H      51.483288251925401     49.676204700342929     50.339911202267317
H      51.792378233593737     49.179385154031422     48.798843926922487
H      49.445777865234533     49.478481386771428     50.570997757147097
H      50.373806246242715     50.420658447863246     48.330742792303518
H      51.410461024014261     50.830328867181976     48.406471426764391
H      48.404599974453262     50.449319122406585     48.339508713773270
H      52.106020410060111     49.376043433853226     48.161530156522460
H      49.498687593934072     51.926908252864898     50.405582015710003
H      51.777442357231628     50.803982947408272     49.078704180550808
H      51.983985872209246     49.494235481116974     47.452337748474271
H      52.356333165810156     51.047661786277480     48.799232454300608
