38
lj38_benchmark
H      50.000000000000000     50.000000000000000     50.000000000000000
H      49.269964959121793     50.271445787978799     49.825603902808261
H      50.600092207478831     50.035985680309203     49.577412067647508
H      49.722359494048533     49.580623023908799     50.160479146602981
H      50.443013604275095     49.329813534100687     49.675474102752659
H      50.757708992206567     49.018414617864273     50.209038956520892
H      50.093011593278540     50.355926544408057     50.556909175037482
H      50.921874167401910     50.573253914190595     49.533097663706400
H      50.895358525915995     49.586815903864803     50.428658531069154
H      50.248045525897830     48.753424835278587     50.491591696493252
H      50.352045436274430     48.112170173414889     50.200972681823906
H      50.932724071636024     50.992251493977300     49.932469992909859
H      50.981947661550500     47.805504085418733     50.433872061177638
H      51.624918906167444     50.237975998457927     49.509877664434647
H      51.435753944738899     51.033668851627134     49.302053821709563
H      50.330153544751823     49.585265647885748     48.944793134445902
H      49.687214397817769     48.912206844329788     50.944307973926065
H      49.536808039661132     49.332617229472937     49.692733258974968
H      50.024123445681631     49.228191973928084     51.386619948015408
H      50.578221201422515     50.608621431371844     51.108637386757401
H      50.476765313812855     47.862747771663102     50.726622716815100
H      49.687823986757806     50.367549955243049     50.215323743744136
H      49.888521668445563     48.669302710236458     51.331662590882765
H      49.867102105608943     48.108804841284716     50.794458470704321
H      49.617344540985357     48.679633860870403     50.264173332185393
H      50.219370361663223     49.182825660578132     49.234000574228844
H      51.287850056494300     51.526151927861214     49.753122381968950
H      48.967693998697321     50.358971290974957     49.226270297794137
H      50.458719022044932     50.630331520644958     51.735073167955811
H      51.512485454437339     49.783001621177441     49.190562976684220
H      49.872774947168899     49.962358239248637     51.601197593927097
H      50.021599725999543     49.868103579010381     52.306740858389780
H      50.055776206474768     47.518029667601837     50.687178500800663
H      51.711581215098164     49.282754332893120     49.137652056314401
H      51.002793721435708     50.745413443050325     51.364823726963429
H      51.523262302401683     50.162995477881402     51.560333297435164
H      49.054453731058871     49.110268902807100     50.121601267655464
H      48.348993802138658     50.110150627880031     49.328393661581970
