38
lj38_benchmark
H      50.000000000000000     50.000000000000000     50.000000000000000
H      49.672829389758434     49.304659444629742     50.084798727979241
H      49.309158220633471     49.524019875559041     50.515085893290404
H      50.171002449233413     49.140063048868313     49.795205938908104
H      49.050349679410445     50.077883721774370     50.658194442742932
H      50.914230083695749     49.106753392694280     49.787843501566364
H      50.902262475219523     48.832511547429263     50.352852486450779
H      48.530358299267071     50.174305004985250     50.068958888044875
H      50.182797141843714     49.543641143521363     49.144935728313897
H      49.945820321296011     49.562787737282505     50.877470047076947
H      50.332752360016705     48.868264830090276     49.067410394349125
H      51.257765572771333     48.477842107397841     50.952334319100146
H      50.820758490979969     48.709757779545207     51.519069906972547
H      50.116048351293522     49.142097835878808     51.406182164962715
H      50.073287111563296     48.353362685034078     51.294356199754986
H      49.694973177741964     49.272847960001741     49.035499859601167
H      49.499882878637365     48.836724676030386     51.522494212728738
H      48.956343491922198     49.159895415454116     48.894620468764458
H      50.461721751629184     50.397018633922762     50.194019161977870
H      50.761507321484551     48.731880810110873     52.196214679021558
H      50.230854641921212     48.391635107233022     49.714823982078698
H      50.920943411195701     47.829236104556195     50.956464656234601
H      51.901259903856740     48.337961577144029     51.058112036959898
H      50.961240557729603     50.071468623577715     49.686581377979849
H      49.732699739247714     48.567612146928035     49.520229914295754
H      51.206592811475005     47.570530369218545     51.521019596416892
H      49.005530268742859     49.597586559212985     51.188778505342000
H      50.968191914442080     49.813473124690319     48.984103307756961
H      51.019741598308443     47.154175257934135     50.580241288284171
H      50.048427269335733     48.749355274631448     50.257434235980035
H      50.780170053745486     47.486390517328914     51.911606600502367
H      50.004215542204022     49.130363463177396     52.084171041003636
H      49.741330797701963     49.426518370067278     48.364437704084935
H      49.344075505741287     48.720094943419603     48.482613431904362
H      50.053509685682876     50.105078891349542     48.740017591065282
H      50.352283130258456     48.492572169006763     48.404481128081848
H      50.955647746009255     48.329439231310907     50.225593205262719
H      48.813242961515016     50.565733061527908     49.499232217290881
