38
lj38_benchmark
H      50.000000000000000     50.000000000000000     50.000000000000000
H      49.720034147294726     50.223579102106918     49.406923422668392
H      50.371432351416388     50.632424633879012     49.302936356417256
H      50.220290700373198     49.938950186326942     50.591284339477127
H      50.733758230610086     49.609525139280230     50.320307538092550
H      49.553806984004254     49.542288725044450     50.099954986904379
H      50.799301535875578     50.349355384109323     48.741737802440781
H      49.010591842272078     49.619821876943703     49.801743272785849
H      48.410868880344808     49.286355520420038     50.200461300611195
H      51.075588808652839     50.037177380476273     49.390869722603107
H      48.334653311840469     49.783302559055485     49.836096528754375
H      51.714336828607564     49.651005328571728     49.211094022375804
H      48.790552323814374     50.119801082675295     49.939772450104144
H      48.599003853475345     50.570287342810389     50.309624399420279
H      49.012319787486554     50.752534904458130     50.712560956265548
H      49.946029773169158     50.896701136505726     49.783671522643303
H      50.721895087021096     50.485586051360727     48.222902476555674
H      48.750194723446413     48.761882610040857     50.016088060713138
H      50.586770120525358     49.106302114202087     50.779871474374382
H      49.318521916148086     48.619535561154720     49.754818123984769
H      49.805453768077108     48.478352839125577     49.583955559356852
H      51.539794904140805     49.833447656848790     49.794716718817995
H      51.246035502264164     49.900778225828056     48.310227813073119
H      49.346698207576836     49.800755684746555     49.300512464893679
H      48.308125800896683     48.930347202168534     49.865939089420088
H      48.299756997003705     50.534899383673498     49.755203175969143
H      50.935856325722909     48.936238725717416     51.124432841318928
H      49.485664970059005     48.141725168264898     49.296670826996078
H      49.602881484852141     51.382239445972260     49.545576689485578
H      51.447912305133443     49.487810541382515     50.994895922545659
H      49.686415796326230     49.705738823362417     50.627951237585179
H      49.721444232943099     49.901975979026219     51.313390351582214
H      48.694481418352119     49.674404368252382     48.900611110709519
H      49.199594715558739     49.082061202705951     50.751461209366369
H      50.298118415052357     50.526381830383016     48.608251909797694
H      49.461467048256971     49.198930609140113     51.184865595807793
H      49.386546139509726     49.068869408256845     51.851035559956181
H      50.443149792972648     48.908881300330023     49.730335531104600
