38
lj38_benchmark
H      50.000000000000000     50.000000000000000     50.000000000000000
H      50.182710006375764     49.954805042417867     49.456113198244786
H      50.567289698261888     50.339593940715076     49.318163861645267
H      50.471156056616195     50.526627347746910     50.231408544378432
H      50.591964893819615     50.694467362059278     50.718352131951448
H      49.972208053275800     50.640767264382035     50.847932762450746
H      49.598590718557759     49.526747610176827     50.394786402643149
H      50.684401816112036     50.223456958449070     51.288887765453104
H      50.356213053425286     51.005137769229599     49.532942953790688
H      49.282879672106120     48.874459254168208     50.235123473160463
H      50.416611665096362     50.082388322041162     48.569485673830926
H      50.081845927046665     50.522040059501684     48.428315364414772
H      50.375560444588807     49.675313064373384     50.490050314702216
H      48.829508196268272     48.725481009499887     49.933529461356201
H      49.506409504468969     50.050012410842321     49.354892961849671
H      48.994665164717745     48.149871600975764     49.618192824585051
H      49.663157242264958     49.352179304676447     51.115408150903910
H      49.117760313959472     47.766863818508767     48.937644515814299
H      48.206384882265546     48.511381379696488     49.638503909952277
H      50.781592368092248     49.679974461876625     50.136830917845117
H      48.143270718447695     48.022006612702299     49.321978133431443
H      50.836742716609429     50.840310529895149     49.576494073188599
H      51.041712489467272     50.387624910273104     48.431762380403761
H      50.776963446503117     50.727967721491041     51.589341233396503
H      50.328835598485895     49.270291555799261     49.891971223566038
H      50.995286053326694     50.059678276734282     51.738195937452211
H      49.000454389652681     49.962792256575241     49.127012654036129
H      48.502672622709092     48.968438152198480     50.268432257682193
H      49.648423537449787     50.547056584364974     51.406043081117303
H      49.209590766121224     49.378639198015485     49.286490940582155
H      48.926667351913480     50.598897714714866     48.740163553655464
H      49.839512147800221     51.097622804774723     48.153946253544653
H      51.359622692993177     50.961631299424972     49.236454908098764
H      51.027117457348794     50.547627185965936     47.944269515695687
H      49.496970661489009     50.494905285136653     47.859044499247844
H      50.103270927529429     50.319555658358482     47.625471252469175
H      48.550029896247558     48.121001025791841     48.613434286546095
H      48.367776852116940     49.702792975926634     49.296421522286259
