38
lj38_benchmark
H      50.000000000000000     50.000000000000000     50.000000000000000
H      50.059842598250171     50.705212561556706     49.689379957818986
H      49.542522117339409     49.845984348605278     49.851549667966346
H      49.461127849482160     49.384473414770298     49.290787500848928
H      50.228570290224226     51.220401355981508     49.625003662656930
H      49.616611618148603     50.166923395119703     50.340827262898408
H      50.080724096102621     51.937563964854789     49.918899814411454
H      48.895914435737950     50.043279911278304     50.088705514188533
H      50.631906694435095     50.986429438605370     49.105403665418940
H      49.669421949243954     50.658950350977008     50.405387086169533
H      48.636760527112159     49.617434555107735     50.074746251638921
H      50.627340185476008     51.283664251023083     50.262827938154274
H      49.979833770448124     49.474709882322593     48.790445033377665
H      50.186723136225794     49.379805510358914     49.352737230815777
H      49.046934230558740     50.334931821763263     50.535268956034628
H      48.712141208326955     50.610026139410600     49.969902905204044
H      49.951153196474408     50.025900181398434     49.506058623884186
H      48.736539343748909     49.152004322494108     49.179835768520633
H      49.101379387747315     49.769607863062284     51.094627566539792
H      49.355894752927419     51.793381622554143     49.722063472555170
H      48.803020368392048     48.579897874574229     49.138703967514225
H      48.753641782254441     51.636172190935831     49.402594156211073
H      48.893798923120812     50.479552697795725     49.450970547357869
H      50.376951884857434     49.928294275761580     49.237238755089173
H      49.499790755498822     50.380005625274173     49.546559408684402
H      50.174103096286316     51.040518166646692     48.566965263827427
H      50.559354456568954     48.759312336185147     49.542308891796409
H      51.171685972007083     51.482271372429601     50.563899771633700
H      50.722965016332957     48.223440516645788     50.046284321692895
H      48.078600169161255     49.123013630572295     49.843561895593730
H      48.180684241743691     49.500989781836061     50.301508219254359
H      51.042640365138361     50.915859158150361     49.707653775791805
H      49.345127572880266     49.794872964804810     50.565103313977616
H      48.974977507544857     51.274819968964330     49.044335781786280
H      48.003935420554548     50.081454522884677     50.350831037485165
H      50.992708587756404     48.442803723969135     49.074303161582783
H      50.289105936997025     50.981129190103260     47.793344211694354
H      51.518111290748919     51.038038029345714     49.923786721191163
