38
lj38_benchmark
H      50.000000000000000     50.000000000000000     50.000000000000000
H      50.299210751435979     50.498137240082350     50.021244127451673
H      49.728749106521981     49.339555097864981     50.204204214404498
H      49.990716934058391     51.055984272176040     50.411400188115913
H      49.156342158033624     49.634567001899413     50.236931035357941
H      50.575619310564676     51.113711329982920     49.870202145963226
H      49.735341441025369     50.712566868180048     50.056174206550672
H      50.244728951799409     50.790229605694826     51.062023465959520
H      49.159823831091266     50.272986521690513     49.779886154808601
H      49.807226293566202     49.485728069402640     50.825848555323574
H      50.896183745754279     50.210994545579723     50.257261470023003
H      50.895266729817614     49.422090570051211     50.288818285616209
H      48.841898338357510     50.039186607762979     49.203009365654196
H      50.313014967152895     51.675473144373456     50.090824508942525
H      50.429677539582670     49.373391123783414     50.992326620703480
H      49.688099171981008     50.186921886164455     49.340485854308632
H      50.569665230206546     50.808302029135518     50.582913603840311
H      49.929765585001405     51.925657821646027     50.662974076211974
H      49.589466899938458     50.187045730102284     50.751774269564336
H      49.738650486656226     49.638838389330900     48.795417162805172
H      49.249627481468451     50.725941390379042     49.163084686769437
H      49.611687804433522     48.875147684655076     51.145322577205718
H      49.708357471213951     52.493758454594001     50.984789571018077
H      50.954450036785587     48.951503295486837     51.358411190452046
H      50.633184301528175     48.586168118387960     51.112790450973591
H      50.230134358083006     48.825520240972345     50.823755718363230
H      49.118665780641969     49.763324819202502     50.785124842297563
H      49.160968941088569     51.003502001164975     49.725779720151095
H      49.640181574547249     50.381464191863358     48.549596368537991
H      49.327969591000873     52.077847291161731     50.955518431734724
H      48.585247034995184     49.788597454179637     49.572162970149144
H      49.877153025788559     50.568802863620938     51.427059476571536
H      50.555571389085465     50.255882837383425     50.723867330697459
H      50.857897754094239     51.590194321853261     50.111557084235599
H      50.866356766823579     50.934958789195974     51.358776116539239
H      51.477459137373849     50.468141545818746     50.421834857514753
H      49.211025761324620     49.380020633563170     49.266254116916933
H      49.310045998494637     50.075814617594155     51.420005545383425
