38
lj38_benchmark
H      50.000000000000000     50.000000000000000     50.000000000000000
H      49.501821084113729     49.872350497470663     50.577815609075742
H      49.334503162653803     49.354968778142130     51.168317009646728
H      49.443904485576240     48.776406730788622     50.831392673651436
H      49.221014372498416     49.608715159042859     51.758421989774064
H      49.010568132895301     50.258645899217228     50.867654519850177
H      50.017649246872359     49.160310087840074     50.883901449297859
H      49.426883104277763     50.830819814006418     50.682913364668522
H      49.987721787858924     48.984406392854872     51.620146180619820
H      50.073305163460965     48.724906786030679     52.365704379645507
H      50.182687237056058     49.366699591423881     49.643489923675361
H      48.857623071398557     49.432905593540916     50.457653790477714
H      50.082998513552553     49.743025503864459     50.596611599970281
H      50.467527348969952     48.672024806809304     51.633910327756929
H      49.880653324131700     51.474962724929810     50.541748844325568
H      50.384713266000780     49.337294386098158     52.678984995540937
H      51.106829332640721     49.036512534677740     51.452187955598504
H      50.768477601280793     49.853040685287318     50.114920667147842
H      50.851185135768411     49.697375858914448     52.728273950779069
H      49.663057877373099     49.385095909796021     52.364995925424054
H      48.959848212364541     48.949762686048842     49.985159141249042
H      51.291592423562470     49.992643857532748     49.570118792069927
H      49.385868241060017     48.764508161943255     49.790078035600352
H      48.621100123374731     49.121236151480005     51.790535888227659
H      51.155212034944753     50.518265048626560     49.793845830063795
H      49.813422107514839     48.990360120701247     50.299483651549195
H      49.792068727462031     51.132431931619728     50.009446624002706
H      48.584626349154831     50.085468506717589     50.614796277925258
H      51.550341167015802     48.613436311683465     51.838401289384926
H      50.227752315244558     49.830260682517483     52.866807460712998
H      49.903351872619886     48.993533079161772     52.747469523925091
H      48.617848523184108     49.991200569358938     51.355866834326044
H      50.546695028476961     49.874130442622452     49.599617820826658
H      50.617382684650487     50.939110195556275     49.881419450577376
H      49.775249879391382     50.327442969512624     51.129403530370617
H      49.814072806377460     49.494754269221055     53.032101689338084
H      48.145114833209817     49.542228542991680     50.531581730316304
H      48.086990265805966     49.696651682122436     51.815364914788788
