38
lj38_benchmark
H      50.000000000000000     50.000000000000000     50.000000000000000
H      50.703717934251749     49.779151952956241     50.003281715532076
H      50.809954427499640     50.133306473264909     49.538117174911655
H      50.264532177750937     49.850747960133901     50.591863464087339
H      51.138577704999818     50.615160144571433     50.049997751139280
H      49.639145626907343     50.381118700813637     50.145410173500984
H      49.411920533972953     50.383338825204568     49.545383149675068
H      50.250836552009410     49.752430114598013     49.476498383394286
H      50.775807389412350     51.016193749302793     50.213756217473822
H      50.768132591279581     51.615622202437322     50.040248432021805
H      50.614679977025474     51.159630541557298     50.903030061322980
H      49.759055046802033     51.056298673657381     49.694459330956462
H      48.799663109460944     50.526883022693589     49.255247062704072
H      50.801744439941324     49.645164763414932     51.083000816638091
H      51.420168461230801     51.704988659728386     49.834731455007415
H      50.248054714533943     51.427871722152652     50.673351998659122
H      51.167254224516185     51.628627019466123     49.228645528717024
H      50.239185512269344     50.457611349310085     49.585194363710833
H      50.102493622595802     51.999768437437858     50.415733719066118
H      48.309580871401728     50.907204718305728     49.685002651747624
H      50.980170377507498     51.302032914962837     51.539116605545459
H      50.905725908183292     50.479020086794037     50.482886942926008
H      50.546777971773892     49.622051121804255     48.741585818768407
H      51.205174652396735     49.505369650970529     50.512065628839643
H      50.080064465930093     49.305335110119870     48.693719319053812
H      49.998035583974286     51.073956243307677     50.357000884014795
H      49.336184787559283     50.301241656280389     50.601156203204866
H      51.046349054386880     52.155542228602449     49.800435689193641
H      48.231406769687382     51.072971098705338     50.281652063628975
H      51.384513295806578     52.508989165148193     50.211574780689894
H      50.666918626420554     50.048780424033453     48.101203024248854
H      48.113747292682532     51.178381481707007     50.838083685280758
H      50.310267656996793     50.327368861798789     48.813444995198822
H      50.887510218898818     49.250223172300331     48.117186514047475
H      51.198786414582003     52.925652326202709     49.924277860028603
H      51.506425875886038     49.403246890918169     47.853017564364137
H      51.561979337866546     53.085298286049749     49.618182796856786
H      49.148332989581796     49.809650631936329     50.124438150020232
