38
lj38_benchmark
H      50.000000000000000     50.000000000000000     50.000000000000000
H      50.490887681817860     49.711292329638361     49.545661877100777
H      49.403634363961949     50.395300777739727     50.094953668940590
H      50.116259447483209     50.629371974089608     50.323487721118340
H      49.665952035188262     50.842170678570014     49.840199678151400
H      48.847009409166944     50.919973517492636     50.011839078746085
H      50.524911111710225     50.373335685373888     49.787819407526989
H      49.023428401622411     50.462122162984301     50.511038566121506
H      49.103934067467357     51.544237625009607     49.941555624914642
H      49.930641540182997     50.711889245461641     49.389658828897005
H      50.510744635294998     50.915038116852742     50.428672771998052
H      50.377490224672634     51.132073264994524     49.218745396711313
H      50.151781544395618     51.376213411149983     50.268599499763617
H      49.201760230656724     51.897447951819252     49.223914283094238
H      50.376069579759744     49.056373969046952     49.267058811861730
H      49.255993116836819     49.723640421550492     49.772311377382586
H      50.112759863624049     51.941767037021222     50.613369646371382
H      49.997307058689856     48.775665755548985     48.738371285540254
H      50.053273968426538     50.099723821720794     50.763745471752713
H      50.327457539764147     48.415628777309074     49.263704212850868
H      49.650319593635395     52.129444029795771     49.343991916439187
H      49.593650203461422     51.950920824556285     50.021831706966609
H      48.386739389020221     50.539480180848649     49.529012007111177
H      49.652927329301740     52.398484446570201     48.670299781058461
H      49.551452468822234     49.831308608123322     50.695177627342318
H      50.321372380892271     49.716262241622040     51.302575537328494
H      49.855967250190837     49.586143871842552     49.009570441651448
H      49.145417217561501     52.394866205817529     48.708586138441376
H      50.089674694307490     52.296697774755145     48.981221714433950
H      50.167035592353173     51.024138653352985     48.719964265892585
H      50.006410482570075     49.510829449120095     50.964822311778107
H      50.835791211755996     51.720623879420664     50.150170089815340
H      51.096722248864296     50.985675039571440     50.014185580838422
H      49.437801744205416     52.337001908108185     50.440701810429516
H      49.596188183692405     49.754220553712898     48.493892580838555
H      50.374261379058375     48.924975631454124     51.316489400312243
H      48.991216632869836     49.651303083323690     49.195789754846409
H      50.797628783713961     52.329276554972985     49.728960910984263
