38
lj38_benchmark
H      50.000000000000000     50.000000000000000     50.000000000000000
H      50.223430400582060     50.310158943234292     49.498032164426213
H      50.414527327453165     49.541489652488671     50.375305812653458
H      50.484425819461087     50.824169028725343     49.206505925202414
H      49.373659398074963     50.314903527164141     50.201749358943246
H      49.904402582346940     50.566678246414398     49.088194819141464
H      49.555981831241262     50.555366161426413     50.766444337142850
H      50.597571889000982     49.010489085362714     49.991287067893360
H      49.455533077806976     51.036539599788135     49.918418752080385
H      50.154303094505345     50.952030949597074     49.839871728982011
H      48.841947086815367     50.150131518763764     49.766413805152744
H      49.180286063143136     49.804610078338008     50.329832716108676
H      48.559563010146917     49.409137362755878     50.212344216918915
H      48.279785147819027     50.699404733219097     49.683480100505342
H      50.660094020976615     49.088442230394350     50.931563608718257
H      49.536169984169540     50.088080075688048     48.933331891348779
H      47.913234919163770     49.703511076766567     50.154762680040527
H      49.292310139059168     50.092408392594244     51.347759146693193
H      48.186551077773565     51.206864227755304     50.231661087208977
H      49.601003696526647     49.725475806967758     49.322609697679830
H      49.080718209982010     49.649042766678363     51.853206154929047
H      50.394667287886172     50.887922518396699     48.637825868402018
H      49.940587883946833     51.428655056458624     48.464885929971771
H      50.875679375459988     49.588017759562966     50.602323509981368
H      47.899799729623275     51.917362626425827     50.442264329854332
H      49.294175800383485     48.901313270096075     51.912516032554279
H      47.692821010782922     52.509128081529042     50.507267339737602
H      50.252254883368749     48.438516497321139     49.578207711539520
H      49.325882814204476     51.338250211105233     49.352204099702035
H      50.433707170902025     50.107294954773096     50.503826785237194
H      50.321783852085218     50.797107032690157     50.501749716531492
H      47.118404885632749     52.359082708058949     50.251107954442254
H      49.476109071542780     50.005459218229269     48.202943867638432
H      50.561253141021403     49.697099878412047     49.200258632358576
H      49.067516248225736     50.069312016951116     48.661494939829169
H      47.669561928588443     50.784743336368649     49.222159516572127
H      49.054665685054488     51.033786874555318     50.868938668695463
H      48.111993032208552     52.898685553757318     50.796134454685649
