38
lj38_benchmark
H      50.000000000000000     50.000000000000000     50.000000000000000
H      50.228039164948385     49.864074874703427     50.690803565558610
H      50.606794810921279     49.637065234397454     49.620689236189129
H      50.532853466639523     49.190585578988632     50.253525749759909
H      50.896266546509779     48.500763758256511     50.342845972267220
H      50.892839968239763     50.191418208545180     49.144066907422982
H      50.739524800358744     50.331345354876930     50.775319454322215
H      49.994534341407565     49.714339684132426     49.209990106559488
H      50.407158135395250     50.082490141697185     48.534397109297679
H      49.607932575250082     49.430657321207072     49.014328011929010
H      48.999477185813284     49.395959034524495     49.227780172467106
H      50.031353422366735     50.738053872097659     50.318006299825662
H      50.716733279042252     50.641922249767077     49.652203359002854
H      49.890868963347387     50.494130623347488     50.786498575116354
H      48.360327409929155     49.314466471003392     48.879232431909877
H      49.931291245221836     49.526177248637588     51.347512200128442
H      47.846898226903917     48.900199543497529     49.001232436837391
H      51.072850617901651     49.309429960858942     49.492003612348931
H      51.381457257006439     48.135671063705082     50.131350105303838
H      49.510199038168352     49.846565542563553     48.603069151577806
H      50.290373466762098     48.373415351479473     50.288081103568054
H      50.890903494020719     48.539824939174942     49.567423887567955
H      50.850795375030145     47.598744892546733     50.254241235682755
H      51.498773670980299     48.989928120567313     49.252149137728338
H      50.821649017430978     48.563450202877817     51.066384834249625
H      51.553392469251612     48.580153691297973     48.796240079645202
H      52.263624475611032     49.131795786272264     49.378439994886620
H      50.497438829977526     50.976904862759007     50.047397382179696
H      51.957592677023406     48.295169219416238     48.853061812350703
H      50.629512574116028     51.203111347979117     50.566088006698941
H      51.376521187464476     48.131071343065948     51.420701034671787
H      47.540634302672537     49.277925092410626     48.490504617120223
H      48.427781024612671     48.497298233634119     49.354070889862726
H      50.506978892058108     51.109324993398090     49.338711344766736
H      52.015725584876449     47.611051250314013     49.008369880084558
H      50.013725699946761     48.845309384975167     51.025050884637736
H      51.379017080090435     51.289560937726847     50.555664137500877
H      49.310435759155510     49.223476364994170     48.544067395153228
