38
lj38_benchmark
H      50.000000000000000     50.000000000000000     50.000000000000000
H      50.701375772044329     50.162521047909912     49.744848586149793
H      49.963601820812855     49.440179654245654     50.461308067092681
H      50.774302249431457     49.877737975272574     49.150947460090677
H      50.200769742279057     49.808188566403729     49.426896931468903
H      49.337924705230748     49.716552840127328     50.509933672206017
H      51.238256720247001     50.333283086955461     49.110931828684649
H      50.743680173717522     50.608917938597685     48.876376956164179
H      50.877607815367050     49.168683448415507     48.787975608103004
H      50.882710109798793     48.570108750406654     49.046369725072594
H      50.428701290811951     49.341035355555874     50.610435628853949
H      49.306639991133835     49.339077137480125     49.923428075670770
H      51.225226789434487     48.798004607361641     48.511054116276206
H      50.760203205980986     49.873184657600412     50.515951589106741
H      49.004833333895469     49.652136281398413     51.094141065030279
H      49.894363101771802     48.804703983608867     49.916988442651594
H      50.137379655156643     48.443115707171238     48.955143333218906
H      48.492727828625547     49.103902968179874     51.221043434339862
H      49.581446088500101     49.104618894682744     49.215873744859437
H      50.103069945148185     47.895548150844235     48.807441222103400
H      48.261466710446690     49.541664301029350     50.674519552186283
H      51.161407403102857     50.823944836586250     49.426169531746638
H      50.366678352899434     50.364695581275946     50.174532946370583
H      51.025416382470148     49.635712160391655     51.210488945454024
H      49.728649722334296     50.453522672845743     49.878057142385941
H      47.774802093778881     50.067623578567613     50.533921491660180
H      50.020102998740057     48.831010007037925     48.579817663153207
H      51.691072150238831     50.510435245728871     49.595807339007948
H      51.264880773093843     50.751944271704637     48.629051873586349
H      50.366767262337419     49.214769671527307     48.545360315387079
H      51.589649555805877     50.171821846788738     48.747417815843491
H      50.200876659969389     47.607024645401438     48.063564102109630
H      49.661517691300048     50.703918872391895     50.411995758374651
H      49.629453011959193     50.077811489533453     51.089103603351333
H      51.562800625729388     50.009842936096490     49.888314272126522
H      51.215596569362198     49.396891063306199     49.340047983800019
H      50.022987408006543     48.666547978100901     50.568556649632178
H      51.395194738482388     50.044177168960793     50.765328200741813
