38
lj38_benchmark
H      50.000000000000000     50.000000000000000     50.000000000000000
H      50.574146608757729     49.643195007195573     50.214010112206253
H      50.490553695835395     50.056058896120163     50.537429605126633
H      49.489089696074643     49.495028624549462     49.635073076871706
H      49.579575724140220     48.917372590981941     49.827107794488342
H      50.778126576182828     50.089612020572076     51.063305927190598
H      49.300846976784541     49.916680034765164     49.451072448660049
H      50.749854810582818     50.146031276792343     49.863353214439819
H      50.973759347836797     50.050528202023266     49.431112660502656
H      48.715568658577169     49.642556359789864     49.546634264845771
H      50.916240706562789     49.122625481785889     49.984286335859551
H      50.021982784059382     50.564770854265184     50.685284076183009
H      50.889807106539699     49.310215965402016     51.159141062119339
H      51.133509819430842     48.871990014424711     49.253142068003825
H      49.242401391846641     48.787236788587805     49.131955596823182
H      50.525491483878191     49.897285864336261     49.154581028577745
H      50.122338260147359     49.772798950745496     50.882201731105660
H      49.381532427019522     50.416177590859981     48.940957635705260
H      51.446806276702169     48.444566332824188     49.527432226974234
H      51.366754235982221     48.476828708367883     48.927045121933467
H      50.709572283080369     48.713757816649355     50.644010890313048
H      50.652864975224070     49.896310334867046     51.706960987753995
H      51.261459670402012     49.729004084086910     51.352054825080643
H      49.620391048811193     50.120711412007658     48.256681181107915
H      50.339220093478730     49.113995955241236     50.704999109571887
H      50.563362795222190     50.684961445280045     50.576846747549070
H      49.148806035865505     49.495997710343488     50.156566765904699
H      49.319665034104311     49.529847582745830     49.093694137117453
H      49.218008307987930     50.884215300728272     49.391820924868632
H      49.442792997246926     50.351273174650515     50.822674446914050
H      50.097815797730746     49.516052380754040     49.932734183070110
H      48.652170207377694     49.708219667511678     50.142061373634164
H      50.328532424528063     51.177344613732579     50.711992964606722
H      51.096524989866637     48.324333910198277     48.294266834404098
H      50.954085859199772     49.871532492318764     52.176658364728851
H      47.956509741013818     49.668936669892645     49.595583807974329
H      50.679360729816828     48.070407982516343     47.876931934268313
H      51.648840518707956     49.915056335887435     50.750395833764436
