38
lj38_benchmark
H      50.000000000000000     50.000000000000000     50.000000000000000
H      49.648605944975110     49.638160621434110     50.458593853845372
H      50.482984297641330     49.487332506769341     50.315883314619370
H      50.344768394862527     50.637854909501819     49.725283420786006
H      50.980403560889833     49.053416195971558     50.085247307317800
H      51.149550863378948     49.732414711628770     49.890282475113381
H      48.861733965934164     49.505489381948458     50.404066833091150
H      50.927440579595782     50.921050292246740     49.537397529924775
H      50.816110969049795     50.222059131784732     49.993196038428628
H      48.740727996463356     50.213527944466961     50.324648521671257
H      48.611860877312722     50.742872262235352     50.066554146983599
H      50.932165458273523     51.308519292811454     50.190280915643477
H      48.129848206223912     50.423399454410777     50.005137879259067
H      50.845493855704134     49.744411586254152     49.428986893883668
H      48.410711620404648     50.344078298926277     50.885502902725470
H      48.312040929520627     49.587601541877675     50.748316462086898
H      50.916340483318521     48.847981479901200     50.718107176206765
H      47.752447363209782     49.890412897541985     51.200157782534959
H      50.992507364293225     50.953940602052135     50.718462990855365
H      50.544722845312307     49.231636554122296     49.584022991368023
H      49.825608680772113     51.053086657019669     50.131851478279231
H      47.825657324635685     49.717369605326063     49.928810211816483
H      49.851415126513785     48.963125752235989     50.843589575200042
H      50.727297010050030     50.635432678657843     51.354305379531311
H      50.129709177058110     50.091450724330016     50.635274338073593
H      48.481089825602332     50.434958919667586     51.672109991045055
H      49.872887587373903     48.823145696758210     50.343014727799059
H      51.010436322582464     52.036841770081097     50.032201098666270
H      50.263273836619213     51.077548614168620     49.058548958133315
H      50.090344403519211     50.410714963283745     49.219892830709703
H      49.095520532653026     50.484393248584141     51.351994325202689
H      50.924668515416272     48.748579746998900     51.241690166067578
H      49.085679929549428     50.283756633360149     50.701414859251877
H      50.636046101066320     49.004461577250318     49.045852946898023
H      50.381217926083650     49.187261830825356     50.999931826395198
H      50.852288289996480     49.243772111912840     51.334725693092508
H      47.851464986163307     51.038589151513612     49.839562737363316
H      49.050276236066345     49.000831793360433     50.212907455276323
