38
lj38_benchmark
H      50.000000000000000     50.000000000000000     50.000000000000000
H      49.979029320959320     49.455110767056958     50.020145835050911
H      49.546001180772556     49.244011951360172     49.772642220126571
H      48.823311407427170     49.168938666146296     49.522941573874519
H      50.578000188261413     49.321576180128680     49.903035822301291
H      50.537500800534005     49.019806107001934     50.642121906459934
H      50.478328407744634     49.949260535143118     50.369777201640602
H      48.704831103940620     49.951108003597355     49.425305358282337
H      48.946779423456235     49.353942096901683     48.970189574689911
H      49.729700405333411     49.230633409287350     49.029860827505452
H      49.884710181523481     49.966859221812967     50.829251773878646
H      49.854464635149242     49.522306428250751     50.526377971881658
H      48.483049740066008     49.708199154582580     48.778133974708560
H      49.374475606968069     49.956097999307026     50.383605323571892
H      48.704450680858095     48.690477831053322     49.209174766228891
H      50.928729004168140     50.327268856892950     50.025126592076226
H      47.908860648875937     49.372669812177932     48.739978761112241
H      50.766437973269483     50.800189899211496     50.123357571155474
H      48.380524971039826     50.581483933761362     49.407039637900461
H      50.967305632622988     50.085013736282598     50.488448098116557
H      49.088309539196750     49.292446042849633     50.112886231262522
H      49.392228736163155     48.538980328531217     48.940776505122429
H      51.045388942540370     51.501289484902756     49.894988641232814
H      47.492678819247367     48.765047252413773     48.519781765844229
H      50.048149949618924     49.353094758621438     51.295338548038465
H      51.268500402536340     50.568647820560265     50.698879974165642
H      50.835726006483611     51.745686748078462     50.547517606425700
H      49.411989341534913     49.646435422209933     48.386819193940632
H      51.403383597964890     51.012909594587740     51.122640870893072
H      46.841504327572693     48.539794958761377     48.287444349318726
H      50.586951953039403     52.010123489969260     50.001483655868093
H      49.344389845537513     49.705389316024835     49.024946219561450
H      49.740086046442556     48.954207887190272     51.173625684494638
H      47.234331330769336     48.433086351022261     49.032626035114198
H      50.919592659880976     50.535579873876173     51.445032414956295
H      51.653758291060782     51.298133255398412     49.453974680282492
H      50.910711798982518     48.737529316995833     49.705417209464670
H      49.416556855272482     50.310739021054999     49.640623756065942
