38
lj38_benchmark
H      50.000000000000000     50.000000000000000     50.000000000000000
H      49.933275471558780     49.563531338957027     49.547232435534340
H      49.973868014134368     49.821659865421815     48.922523265165168
H      49.331143687542884     49.267758464025029     49.423653927722171
H      50.759451894488500     50.122114812356095     50.008114893273870
H      49.910131260096605     49.564956433689758     48.461547892222185
H      49.676866244975415     48.812097164165067     49.968215530490774
H      49.341539784979517     49.212289550755564     50.076488093231816
H      49.974310003144339     49.566366723138032     50.272092805669061
H      49.209617530583074     49.453080152080027     48.873144508788080
H      50.577053371509066     50.190729357235696     49.266089636238775
H      49.894014738201086     48.869199635645735     48.152265750580618
H      50.243444292734964     50.314022673412317     48.906833987554208
H      50.165298777584312     50.180720978769052     50.655604473424908
H      48.694201588874151     48.876167661437329     48.879549515042875
H      49.506326925293529     48.653918802084270     47.591380269968141
H      48.348149306400551     49.398474023625297     49.328344564670608
H      49.320625816752859     48.575664314925767     48.620086942373575
H      51.089103819362883     50.213894462376125     48.820293070101677
H      50.107303253291541     48.344864240772189     49.796446753083643
H      48.945359657207526     49.759511147826103     49.176607119459604
H      50.269698861903201     47.873543760437514     49.369225444473713
H      50.435709146805294     48.349766749623150     50.509007639119567
H      50.272997923913572     49.348507637666479     47.669814224232212
H      48.087489862665407     49.539840447946489     48.630519376078411
H      49.923076507976383     48.202267927286272     50.368914753637391
H      48.117937600221140     48.691087430138317     49.141651798612550
H      49.306980932263485     49.847594922266360     50.247309589866724
H      49.076449772539988     47.983453401359746     48.867425982521098
H      49.419409345017172     50.217437232882695     50.747274432180575
H      50.797122525607904     48.379411902977083     50.972889270128157
H      50.356948251855052     50.172689038805999     51.335885896662980
H      50.387840720241201     49.060437208096488     49.824834415765018
H      50.077780633153829     49.893034309330403     47.619737697549326
H      49.847648740006029     50.517106760035340     47.338894075554897
H      50.734668910234255     50.040530752232620     51.725284958911764
H      50.102750808211745     48.747898570014527     49.278516376109643
H      50.011938949785559     50.579647210812361     49.770026945025030
