38
lj38_benchmark
H      50.000000000000000     50.000000000000000     50.000000000000000
H      50.076875634662585     49.760296507421558     50.558843930261460
H      49.623733050148829     50.029866958678298     50.895069597979038
H      49.569309406081750     49.319534522976909     50.551293083844413
H      49.952030004323092     48.674541912000443     50.752584203723600
H      49.907410806255712     48.507970927415187     51.498456274913252
H      50.111328609239600     50.001781073912895     51.212421065536603
H      50.267086538248023     48.894130946499715     51.558151155072125
H      49.688196323946620     48.221294066209296     50.858561524525953
H      50.379390274177581     50.602132287819316     51.017477283980483
H      50.966209698277737     48.751184624729753     51.723900068446284
H      51.005874295694284     48.161340203602791     51.238404077118894
H      49.509051117438403     49.479092627533831     51.462837548879790
H      48.892561282188780     49.254567166752679     51.080547090485197
H      50.628763331709706     49.968530665820921     49.704437382832737
H      49.354868104885512     48.595179356466772     51.404671183220977
H      49.876886956349047     49.321556368513747     51.022992957423874
H      50.072738147982776     47.912461354833127     50.388972415200961
H      49.546787367433247     50.310525966237897     49.413459664610329
H      50.460291009926522     50.392815558362386     51.542397768881926
H      49.140944379364065     49.775807909233350     51.646438628065731
H      50.427904131313412     48.387568170065734     50.011617460375753
H      49.734107055822179     49.631014879434282     52.148848961187944
H      49.814990275162259     47.947402436202431     49.717410071723876
H      51.468153382372634     48.149419547502546     50.632127863779047
H      50.670860310484322     48.503199354569972     49.365654618109659
H      50.577487671016698     51.183424625087518     51.579826165209795
H      51.131407540964638     48.718761167109029     49.861077519503070
H      50.034964255832918     48.746175591843986     49.891929673169948
H      50.783054003397616     50.777826683169302     50.503987970078384
H      49.207160673543548     50.415112330003296     51.271935646234425
H      50.927153979109676     50.199343586829052     51.688264962829649
H      49.664982569284753     47.453677643508676     49.166003183653970
H      50.993226223823321     48.318683558829939     50.205362465940254
H      49.957224172004153     51.470681871975472     51.231772739724001
H      51.011465950898391     49.246462975854314     50.052694175750077
H      49.823197435683930     50.478752863519688     48.989236385720197
H      51.407100279415928     49.685577350986975     51.662181581943400
