38
lj38_benchmark
H      50.000000000000000     50.000000000000000     50.000000000000000
H      49.439286561863959     50.274153807099253     50.383579538293084
H      50.758148419224959     49.752253488262483     50.078762344739367
H      48.870748632285476     50.099276235704913     50.360320293101928
H      51.367358431672656     49.757522847733611     49.590472488340460
H      52.001947466062781     49.880676083466348     49.135516182712529
H      51.758603515309581     49.275497386349151     49.361803406241613
H      50.163257351220480     50.022546771797458     49.336107251243199
H      51.555041405768904     49.617142874406142     50.221019020233143
H      52.160549907638718     49.113915654063405     49.845636733797036
H      51.095067550222979     49.910291635328640     50.589719474364017
H      49.958204732694135     49.819998769850194     50.536792987794513
H      52.275361506522550     48.519631317085747     49.354085052008209
H      49.930970785195655     49.549575158714291     51.212499023467380
H      51.968558027859444     49.663723350236978     48.376650473744739
H      49.381225278615105     50.402089069824413     51.019093915575553
H      48.805717525962848     49.920145961940143     51.261402912811477
H      51.145265777271547     48.911741184122427     49.245854149384407
H      50.370773061967540     50.557305752583325     49.171430080009934
H      50.163511559557108     49.695723092584501     48.899290944517013
H      51.610336995643813     49.053506304378608     48.527850933919048
H      48.990213231586630     50.231318526603999     51.627411518167740
H      51.284870601942870     48.640018522136174     48.708467754369330
H      50.584395879150755     49.343105351536913     50.349346963178888
H      48.953216333089010     49.414938683211993     51.417202629895876
H      51.828288513654705     50.162773988943670     50.461084789253427
H      51.634141427394049     48.712274134754892     49.319378926770135
H      49.980412612443857     50.101763733782867     51.548244770272710
H      50.580885935668377     50.322385194114617     48.463395999221454
H      50.993163859151764     49.192915485001777     48.476709614011767
H      51.230978109438624     47.852127725961594     48.689788760286596
H      50.641350597948758     49.703637625201750     48.188082808211213
H      48.598225753394033     50.601168941503140     50.599773904161111
H      49.326041496355131     50.278913028486755     52.087590975252560
H      52.046472195434390     49.837154848224898     50.929908088583204
H      49.281462703783710     49.678275854429614     51.749971296379641
H      50.240912539224013     49.556743355445384     47.708016541641001
H      52.286398155965230     49.311701877194857     49.404084926464620
