38
lj38_benchmark
H      50.000000000000000     50.000000000000000     50.000000000000000
H      50.546889237893360     49.579317509054832     49.985192059331744
H      50.432335328760161     50.342399334082508     49.911555727891667
H      50.944196054691304     50.261443470432447     49.765709324809826
H      51.523769966182726     49.906686831699155     49.972656181353059
H      50.642590978561287     50.740673702325850     49.390421752181894
H      50.990511623690516     50.251467776644553     48.947462926751648
H      50.915084692113446     49.061036439622704     50.038870183165031
H      51.796431019527866     50.615083574186485     49.937754634123706
H      51.524009974018554     48.801563061360277     49.594171738828514
H      50.779270505570857     48.503185801351776     50.109555047692446
H      51.625094389623115     48.045060156629965     49.747773017193154
H      49.656190601251637     49.419475978645472     49.949414785156499
H      50.437959266857490     51.098912812517909     50.073981596307753
H      51.002070447260223     49.191205305278196     49.187246169867613
H      52.161657528563765     51.049402575640265     50.267549580398892
H      51.302712852295976     48.827348701238918     50.424480341294533
H      52.243555750421692     49.618262332731675     50.186212122496499
H      50.748642440507453     48.597511967438585     48.820171217365726
H      52.461803518437804     50.561034542427159     50.650614488206649
H      50.747159291637331     49.187181849380444     48.584375817258419
H      50.311181756637225     48.041053236832951     48.681212124362936
H      50.254339389122471     50.374443353251451     49.367268465734227
H      52.774929619924748     49.420362475854603     50.213906223187557
H      49.551502900696541     49.705673671585984     49.349846791882179
H      49.332299562372192     48.988390057572396     49.748181486838483
H      50.949996587461783     47.854872580013421     48.469792657706442
H      51.714756429408098     47.624848711913351     50.140906605913919
H      48.802030143927645     49.278272471021538     50.184640199291728
H      51.421336532977008     47.992633346362524     50.440599332176937
H      51.101109234157384     49.753064467443089     50.216854544566779
H      51.460002575520512     47.820693419921831     47.950740719192574
H      49.889650847432065     51.188705036215573     50.619806204188357
H      50.997376756365831     49.109537605197680     48.102960909193456
H      49.477882510396711     48.820618479604214     49.117011103277299
H      51.854455549572926     47.380051832123804     49.414379837820441
H      48.264613755318287     49.415856734955952     50.053881857216830
H      50.473674890135932     48.718334173307476     49.618451130971678
