38
lj38_benchmark
H      50.000000000000000     50.000000000000000     50.000000000000000
H      49.488023010345906     49.799534349558769     50.010195189377626
H      50.422041889490764     50.276928856575019     49.553490840298650
H      48.963419159240580     50.300569695524622     49.703574310292886
H      49.935851713817122     49.307212316884268     50.046741143751809
H      49.814480923882869     50.678088613914127     49.944296748407254
H      50.435118108452031     49.830988628442043     50.305122212401436
H      48.655427343182197     50.700770542034846     49.424253758781958
H      48.873289746886243     50.554971506833667     50.253097693247852
H      49.259805360743250     49.477798406284187     49.589562542535639
H      49.520245649135560     50.034954420782078     50.573235584819557
H      49.536106125060542     51.332640641624927     50.242161530038594
H      49.634274419637990     52.111115855617584     50.383064390888634
H      50.441873285376936     49.379045811449743     50.008244535806902
H      48.913656164566945     51.073703585954760     50.779847552445382
H      49.141614124858492     51.691712472181223     50.973931384008431
H      50.770647467921080     48.804217659441349     49.702848635159079
H      48.698729414956105     51.591169781492283     50.558083149935996
H      49.736618848268279     49.639709827933295     49.311193994196309
H      48.650597324948855     51.576307136805909     49.853585630190210
H      48.489362242245519     51.023566678671266     49.054993877765128
H      48.698955317185778     51.904585445660842     49.222633323186919
H      49.192186629854696     50.764599399798250     49.399080192494345
H      49.281311284931775     51.970406774712480     49.062676944098854
H      49.350955689496530     52.204034689179736     51.218818597546907
H      48.596217790851519     51.036610036918070     49.905668811618426
H      48.262968049971505     52.173308646925776     50.240615200670099
H      47.842273009909128     50.669280695748348     48.856199746542195
H      49.887937670942534     52.006151934820274     50.974199147584365
H      49.787496778221865     52.305097523852560     51.485016800955798
H      49.963813392001953     52.566628357242251     50.986588682506401
H      48.432817229172088     50.314471336676334     50.547695398239355
H      47.472720862196240     50.996425393553018     49.129461218399150
H      48.212086759398566     50.325629697704144     49.425864306268515
H      49.742854320728924     50.709819618189300     50.566470067544572
H      50.027889481197683     50.632190989433873     49.262242266708704
H      48.488989720637520     51.729502872197813     51.214525522088167
H      49.161614568383762     52.857969247308503     50.817963279300699
