38
lj38_benchmark
H      50.000000000000000     50.000000000000000     50.000000000000000
H      50.506547708424613     49.762700041618778     49.826880443095689
H      49.536743927701394     49.958673309323416     50.579516194289454
H      49.979934393034362     49.585347576294325     49.632049707143800
H      50.361431080124056     50.298434022972046     50.456658744548697
H      50.288458394230773     50.738611239122321     49.908673715630485
H      49.503432786408567     49.522935906916217     49.373090844760718
H      50.526889203347963     49.704711753585876     49.263000451363681
H      48.947875033710979     49.690206068628115     50.489624909977756
H      49.378125999336156     49.893137088606089     48.810417702506051
H      48.155111980957308     49.741336546898829     50.493166884727678
H      50.695507994329766     49.452633340686496     50.454434872090339
H      51.056630130136433     50.398056984118348     50.597069087439927
H      48.636097632443679     49.149403537868785     50.221177792043996
H      50.276329367835658     51.295981593701057     50.035209957176264
H      48.523988357994199     50.435295771407148     50.562980046564107
H      49.769514611944238     51.143047083978800     49.715085508439522
H      49.298829331446306     49.076540748660250     49.902832224154835
H      50.433092939825265     51.664413641963250     50.719470847222766
H      48.904291564047917     50.240809441264069     48.353871667172278
H      51.058600423841959     51.701616618293642     50.829171360335671
H      50.569322079033128     50.865057680396291     50.425556747363636
H      49.243206379774186     48.555803829142235     50.365807135964950
H      49.337815727198183     50.628550830184722     48.664299955925593
H      49.453712544212756     49.695044124902850     50.002155979088357
H      50.090170769544308     49.114148646356568     50.320282314167770
H      51.308063046110512     50.694609731061959     50.011594705106148
H      49.932065494214569     52.259088025334790     50.583057748499428
H      50.102257987817566     49.904402908638140     50.782964082104570
H      50.173396921156382     49.041990596605459     51.041236700297461
H      49.193252833619475     48.430147820540434     49.635176862734717
H      51.537998161573896     52.216369132268795     50.588387380059174
H      48.677287841902270     50.088256076108756     50.092046763858008
H      49.063878512584488     51.196080436043403     48.883518279124949
H      49.980836759937461     50.584160113826712     48.556877115051051
H      47.991749828125847     50.650968803510644     50.128115885102893
H      47.476960582679965     51.066851456893644     50.393536382743562
H      49.106857159867253     50.827519297207452     49.957398524759157
