38
lj38_benchmark
H      50.000000000000000     50.000000000000000     50.000000000000000
H      49.216686457917156     50.136985769206937     50.065102887391447
H      49.302597656806192     49.657097380453500     49.866948268567825
H      49.396418051912526     50.747854803253695     50.255207904276169
H      49.930110199186977     50.169483342500833     49.345245580011593
H      49.922541385435530     49.233385268732853     49.898434893693626
H      48.868436705706920     51.242296393070738     50.520737350459768
H      50.230277443109074     50.582473739783659     50.273092590361337
H      49.250475674593027     50.258398868810119     49.303344077278702
H      48.387072293456249     51.496544940869796     50.809459545037321
H      50.497019526736025     48.838322228304783     50.270917372559552
H      49.587856421734585     49.775933358258037     48.998721312426198
H      50.076080576166298     50.742380146179372     49.797725287397931
H      49.170078347803091     49.404528401186639     49.045431217144397
H      50.060446172282610     48.184811728185728     50.410829325989418
H      48.752614644265790     49.846048221855987     49.477767311906725
H      49.574795290839262     49.687675235395730     48.340256940999495
H      49.028192820363259     49.882854629029943     48.812617188305936
H      49.400528357312837     49.123116232980195     47.827621674531223
H      47.870210886740068     51.588864407168458     50.356031965460311
H      48.676040150486571     49.353428912267887     48.572746915803940
H      50.410958351009732     49.561293082681892     49.249462835766678
H      50.260168625983951     47.624148020913310     50.604477362503658
H      48.156002352899449     48.859920798959784     48.377308257659614
H      47.916348185905996     51.727935931801056     51.334621066958412
H      48.577137062922894     50.653772880648916     49.265464834498736
H      49.536287265357217     48.796015033535312     48.862694063860999
H      49.053435578653527     51.959831336303530     50.622628438845439
H      47.913828643297194     48.434310293601406     48.492292793571821
H      50.835983308451802     49.913209367556597     48.735049283240258
H      49.134120556678766     51.015745366604321     51.118121123777790
H      48.019606580842449     51.110730443100152     51.683974468391185
H      47.704385062840373     51.529093680090746     52.141514480877483
H      49.193534634513441     51.628299350001100     51.164594825193518
H      50.424742616395896     49.589648704199547     50.094509161240502
H      47.358545339424445     50.684584362694586     51.824814545095002
H      49.742425910555404     49.725863638756472     47.801423544403328
H      50.346702984899458     51.376841249088450     49.949812556911070
