38
lj38_benchmark
H      50.000000000000000     50.000000000000000     50.000000000000000
H      50.609336321495455     49.858266572957106     50.310515644352400
H      49.416434538020013     49.987212876588401     50.391817886038524
H      50.461548031716006     49.233499599833799     50.603343820974608
H      50.229928137132624     49.338928082842493     49.650387169716829
H      49.900217655741038     48.975712341597472     49.257997475475207
H      50.714107868480028     50.604442746968687     50.481516960983832
H      49.640246223603505     49.727671076612523     49.576256565256877
H      50.761671851015450     48.824629405549892     50.871274965664576
H      49.800145497882262     49.585551166545109     50.290412442300465
H      50.099758980388252     48.535454879612544     51.223134276824446
H      50.076921433812501     50.402933413224822     49.674536485715706
H      50.414199720701880     48.606245569243335     50.480516584623530
H      49.166486082230229     49.690180985609913     51.020503142829611
H      51.028212852077274     48.520147032420482     50.346526600099551
H      49.855692173527181     49.316181430791488     51.193292295418516
H      50.175358933843512     48.282143425568044     51.882125229774900
H      50.796478348478793     47.979605675306409     51.549922966490499
H      49.124367432800945     50.481062025803048     50.254304447410270
H      50.834518519022772     50.375093632886085     49.835338917874957
H      51.406591233873606     50.877007321692020     50.508470800957163
H      51.476228781557452     50.198490681936384     50.657928279271779
H      48.867639825645696     50.974378985287544     50.008044256637639
H      49.835307465155630     48.615435793839048     51.648457994487480
H      49.250366556504162     50.677587966780862     50.756551682535367
H      51.006231613934688     47.842069431881455     52.121413740118768
H      50.680724324434465     47.976434065049915     49.964810415225557
H      50.098713267543879     50.006085718715219     49.376323853085687
H      49.434007510871936     51.037365891475559     51.084233059239104
H      49.259497181588848     49.276779115008409     50.029074129298621
H      49.230408382875105     50.861392214569712     51.582292229762587
H      49.764633342048178     50.390227122358461     50.471356205952070
H      49.146353125212066     48.343441425356211     51.694975818832418
H      48.438416229477568     51.258061629862389     50.386796608354402
H      49.824910799684226     51.705266243638135     50.902588410805556
H      50.297765929471879     49.496048764383715     51.554806139162793
H      50.159949993105315     49.557207324816858     49.103253914808207
H      48.740151606939961     49.777830023204807     51.338673365182302
