38
lj38_benchmark
H      50.000000000000000     50.000000000000000     50.000000000000000
H      50.443258301172619     50.369049635796344     50.449476177892215
H      50.772632134192001     50.892991715110270     50.535890104619355
H      50.568658019370524     50.571529185297329     49.721682211172542
H      49.491713189365043     49.845935015825290     50.386818446232752
H      49.818068821170471     50.397214794788553     49.746705906064392
H      49.044327180023714     50.071121666288420     49.761195727909843
H      48.607290239983044     49.813511427057335     49.360437789259827
H      51.001647302833675     50.873280185351462     49.760019905143650
H      50.892348648787603     50.508334069660506     51.138284270225405
H      50.877545047374262     49.973202572323942     49.525558860099494
H      49.403249135082220     50.067285724455317     49.196027636556394
H      51.392969198678593     49.950462619243282     51.257078010632249
H      49.227267774044179     49.953128295388609     51.021479120461905
H      49.361297861950369     50.469349577430400     48.507325559341652
H      48.596700574609905     49.869991128304981     50.669162758007460
H      48.395700325933923     49.735565421929245     51.207868101783326
H      50.461194754312636     50.377258419852573     51.468544507908490
H      51.055516107599644     49.711205788745573     51.665179508831756
H      48.515026199895097     50.156786772192589     51.797287259990796
H      48.364759136328239     49.667178723346879     51.783850814947016
H      48.851223830891044     50.838933713020367     49.777130522934478
H      49.255675520928570     50.431181958701757     51.873622924491649
H      51.233619581096335     50.770442641071767     50.672995631562443
H      51.473084186063446     49.716547838513677     52.108117158358503
H      51.551427872040897     51.206041170716347     50.922325619843598
H      48.610996202407364     49.524966741147480     52.280166741072861
H      50.310387868636028     49.532292009266037     50.074053232140365
H      49.944068609829792     49.620564472541126     49.285466765719491
H      51.771579512180828     50.061930706101037     50.622077752972558
H      48.390219600076961     51.242521098790036     49.771769589600225
H      52.031380515232954     50.292270339088681     51.132768596535229
H      50.002418703267018     50.054504056837608     48.563127994154151
H      48.876036257878333     49.256029250885206     49.477534782904819
H      51.783858841293807     50.833125328904075     51.153525681843902
H      48.344727823887510     50.902043032999295     49.070647082143793
H      51.834802406933406     49.364536538121229     50.523031812030545
H      51.663607343015322     49.011459042136174     52.125812726499227
