38
lj38_benchmark
H      50.000000000000000     50.000000000000000     50.000000000000000
H      50.264553353341782     50.568535125827637     49.863697619512322
H      49.547424612367692     49.519604254935288     50.094575774523889
H      49.863753191690719     50.874627534778405     49.655865769920382
H      49.446154700164755     51.183731833530587     49.173258723745420
H      49.515829991247870     50.315722998968944     49.271951145245936
H      49.021464333215143     51.113646291868896     49.722804218866209
H      49.028686563932588     51.607968514466478     49.302845099794808
H      48.921327678221182     49.110511402746035     50.107435356609109
H      48.547299945420868     51.528463037102249     49.487097648131211
H      48.449892871687489     49.219804288937631     49.666773612751918
H      48.372667129895881     51.237132713804243     48.919264943120147
H      48.063234395635135     51.635262920935290     48.433459957599176
H      47.881689051075575     50.950029180971157     49.036359183380718
H      48.308600837072106     50.699338202945448     48.416065822224276
H      47.455958044103845     51.193362093374539     49.185599076940974
H      49.819849545660972     48.894847209186281     50.198466319436704
H      48.048433430072080     51.159153943147324     49.757221619594759
H      50.561080701476726     48.963745204444173     50.379270375774077
H      48.301615004641512     51.195473403588423     47.839908712169816
H      50.745754602119050     50.057193632852773     50.211023788499908
H      51.278082322011741     48.975806303580846     50.015084681746366
H      49.034806337751235     51.767457281252021     48.787016721399148
H      50.489902829969054     50.055850646552308     50.683160392569839
H      47.640037466864371     50.374951858137109     48.107391595667032
H      48.159925780816053     51.373028424240019     50.441215250006223
H      49.722275561544294     48.397322430051908     50.753162104020298
H      50.071063197343577     50.069383986955557     51.205390329872287
H      49.636579447700846     49.889966185246422     51.389298827044051
H      48.506583192613462     51.962633638696310     47.903397485853830
H      51.408009080410949     49.151055604319893     49.466874588823742
H      48.948606037471642     51.068465012049153     48.357273245348416
H      49.271553476967526     49.690066514883071     51.074560993893598
H      50.261672546646857     51.215028639328843     50.311581615631766
H      47.530959080400145     51.336318300989575     48.581132743075180
H      49.116727043038374     48.623873050514405     51.083407460442174
H      48.980935818120628     52.496702250754332     48.838921210446756
H      50.626142538846061     49.573345924173879     50.333509190696631
