38
lj38_benchmark
H      50.000000000000000     50.000000000000000     50.000000000000000
H      50.639517571499496     50.182253504003356     50.220367826711652
H      50.516834380303877     50.812405325753886     50.379714983022730
H      50.600324270955014     50.556574090995362     49.636004783233098
H      49.960980019435887     49.941306075148773     50.681080817124347
H      51.326763223429573     50.616189880870216     49.728209235675841
H      50.911308312013652     50.716445786910406     50.911223797374539
H      50.755467899880877     51.334014789948320     50.047414373863155
H      49.816455598098145     50.661990171499745     50.387442067979521
H      51.123134137943360     51.834363111609321     50.090055096897338
H      51.020778313663818     52.319209031593545     49.647967719926157
H      50.612535609778185     49.866540129046186     49.254969881659378
H      50.958501113206175     49.453719695094279     48.874252817369019
H      51.579606726680275     51.482143558975942     50.065470691890233
H      49.292407996819634     49.822783712183615     50.004026553190691
H      49.158323860560287     50.241570075035305     49.754870619643114
H      50.179173107294879     50.605071470812362     51.012373656806908
H      51.073925921039447     52.820364030389165     49.632970173883386
H      50.720826714879017     50.214257671551643     51.322899557609219
H      50.953327417684399     52.425222178679157     50.245838174577536
H      50.143263172408183     50.374242116966691     49.177624671520419
H      51.464734836339531     50.671221219655621     51.331891075323149
H      49.765694290072219     51.142637122934396     50.130178733541612
H      48.429933107356675     50.336084385758042     49.822629519737035
H      49.720525570676166     50.743559700571730     48.857517703561790
H      51.629648862739636     50.046106492038881     49.509668420860869
H      50.239417656302905     49.492970028018448     48.958969903633538
H      51.517772679599972     52.104615154458244     49.187101485949263
H      49.017026425781687     50.325380452351489     50.348067937847716
H      49.601882901119346     49.321322931724254     49.748844259841519
H      50.538834274361506     52.681809900883565     49.548820610329393
H      50.123103015467130     53.239642570069329     49.355225292694868
H      48.997948532319128     49.406085545327400     49.353426869489404
H      50.592701362235950     51.450564315353027     49.383615873380506
H      51.399495151768804     49.570954309156740     50.101293771271436
H      49.170473319560735     49.343072914462127     48.800918965688219
H      49.271805546390716     49.238478051137399     50.311991368892286
H      49.044903654828687     51.002029396607284     48.612719839130001
