38
lj38_benchmark
H      50.000000000000000     50.000000000000000     50.000000000000000
H      49.692283039259330     50.566597897818234     50.420544277387684
H      49.964167120339610     50.530899081388206     49.398342561690299
H      50.046215683088697     49.430393945585251     50.446964916700558
H      50.165931146495161     49.940793581975448     49.486403841932272
H      50.537835149132256     50.391784943829215     49.852385816597796
H      50.425894670968667     50.961692271680931     49.101137892986351
H      49.541858744555164     49.788800938992750     50.061559411730222
H      50.539460296659449     49.643868150179408     48.968517265731606
H      50.658852791400463     51.217645209824141     48.414954074249678
H      50.070640847568789     50.153135337371381     50.562323410183176
H      50.328554975732175     50.910901953081527     49.677977725024192
H      51.021482342706733     51.472345170378574     49.128089100550994
H      50.858804863652246     52.167714285724252     49.420558384734804
H      50.607567668220767     50.240800033284771     51.049508172509924
H      51.147665308523919     52.335221952948899     49.983028170710483
H      50.960238025448433     52.225880013186703     48.876267779565026
H      49.975876456319192     49.453314669994434     51.049729540286165
H      51.368504945084482     51.036166479725814     49.700359683800130
H      51.258357605879013     49.910019787407187     50.847995756295212
H      50.744384894799076     50.648444040817644     51.662654107667052
H      51.820503546808787     49.628112177470435     51.288764424955730
H      52.413160653756229     50.016536342039828     51.266685666683728
H      50.879804019888560     50.496436341592393     48.424174104939866
H      50.655455031448923     50.180250693134120     48.809735150042478
H      51.799042243858047     50.810136433959578     49.823521380853293
H      51.084698186615284     50.535402851854599     50.743725717650655
H      49.438638892809166     49.682076477341468     50.688133637158430
H      50.134388782997696     50.390330106567390     48.899056747902392
H      52.060087156950033     50.088383350673254     49.893141977296757
H      51.954537564418857     50.594250146001649     51.555088780068345
H      51.313919251663030     50.562967597557737     50.273476952670052
H      48.815173746396958     49.672745460426796     51.080241543384169
H      51.365951648755015     50.762829950511311     49.238956134538192
H      52.006039387036409     51.154336422218321     49.189743906254009
H      52.539301901196069     49.789638856128327     49.432709237339566
H      49.872817614180356     51.187197345407270     50.521808579317032
H      53.144366222598272     50.108192401967877     51.052004876135570
