38
lj38_benchmark
H      50.000000000000000     50.000000000000000     50.000000000000000
H      50.167426133204373     49.300312123931974     50.239965392017979
H      49.820589303513692     49.638812150436173     50.730530680579591
H      50.411712456776556     49.912159485700450     50.541533614308769
H      49.804765336685143     48.801960330269296     50.068703318921855
H      49.352015084803384     50.129925724952081     50.045908610564062
H      49.328617328982226     49.583258993366265     49.674588110948271
H      50.353276253646023     48.984799940455041     50.785695660354122
H      49.729452900198957     50.636067233781027     49.773690528883549
H      50.034210535958415     49.626713756591705     49.414005676991465
H      49.060233703503798     48.622322453052767     50.185479174220546
H      48.674993818914878     49.000340929386390     50.151796220476584
H      50.110628372350384     49.011997834902012     49.199421773079237
H      50.550814662007255     49.742751115356867     49.859645734394590
H      49.164832446164176     49.108762223351469     49.510701129552913
H      48.716003851000309     48.893044531953336     48.971661983687547
H      49.775615589189819     50.254202099945068     49.291787274603855
H      50.577600170732367     49.222767991508647     48.781776990295327
H      50.121158767322271     48.501981378718511     50.650776541685154
H      49.796489657447275     50.202432808192448     48.605038285966856
H      50.601252985101773     48.707692921271821     51.266516457809558
H      50.698418194550541     49.986372989127005     49.235739468462249
H      50.478209047102659     49.377764531306823     51.570926397687330
H      48.224218131669481     49.349235579095613     48.852337395038752
H      48.223885767877697     49.249329202507198     50.530254308957524
H      48.648835841016293     48.732377567204907     49.637638320805507
H      49.708900533604329     49.056886407060908     48.747314738885976
H      49.495729228131587     51.052875776145953     49.134133373140621
H      50.806620750342525     50.506537934930435     50.730405265665517
H      50.091379833349293     51.505632366636711     48.964747292080922
H      48.605513654524117     50.079584128034867     50.321565678713618
H      50.598957139736328     48.631381242414271     48.489270306087931
H      50.667038410816133     49.210611633455002     50.158598845984812
H      50.405850028932171     48.572187713725604     48.998196394315336
H      48.663001915429014     50.442498595505754     50.954027995720097
H      49.043711244291565     50.614742385531279     51.507789100051475
H      48.900114138143465     48.465902775867754     48.751035001020483
H      49.432627633657781     50.328175349191568     48.071858934273209
