38
lj38_benchmark
H      50.000000000000000     50.000000000000000     50.000000000000000
H      49.296831417950798     50.281104989898758     50.015057083098597
H      49.810480879803187     50.440255479555610     50.357019903744373
H      49.375651730920403     50.046177932828755     50.524146433298704
H      50.107869336419562     49.772489565143864     49.556615192663038
H      49.056002776068382     49.712354173490603     49.681643699327992
H      49.254733981802495     50.380677675677006     50.927135178068205
H      50.438500834259671     49.554495223602402     49.127195851851418
H      50.312592558134959     49.072366766239440     49.628289103003851
H      49.343716832322521     51.087325684055244     50.888684053980953
H      48.974147930396832     50.487537294256221     49.318612210435830
H      50.455988144350798     50.332795963049520     49.721985837935406
H      50.023901750151438     49.940434493910772     50.969837747854662
H      51.098954852599078     50.205891578380687     50.143263159598803
H      48.754358835855903     50.254513120100640     48.642578345132364
H      51.222767267651065     49.665818342240613     49.252803691780713
H      50.745882178675750     49.604223641702326     49.799157079412730
H      50.041698117074020     48.519459858842872     49.939252592753697
H      49.752356432332803     49.322657887404389     50.551411902476346
H      49.544302269209631     49.837542280373185     51.389670710010989
H      50.036515399593831     47.816588088868947     49.592274825697160
H      49.973350225205976     51.522359872472755     50.687766346008551
H      50.028200198955986     50.346240623167425     51.426038768881902
H      48.505826383984434     50.080977192827469     49.188078447701571
H      50.319215219865320     50.190074766191600     48.787973104407399
H      48.215349026772003     50.676804415291720     48.766339543453618
H      50.644378650270298     47.593525110237927     49.927588108416501
H      48.572843139278227     50.548597202856563     48.250095969661402
H      51.001870862598999     49.174815130905486     49.945252602174797
H      48.453739506442666     51.322690653515693     48.313965115575144
H      51.676722349406376     48.864705479177758     49.811776882200412
H      51.617915938848881     49.431144968191262     50.364688678296517
H      51.288614340420125     50.842699423502950     49.903166898518180
H      52.149297154976232     49.110363269856080     49.633256494536141
H      51.949774248182990     48.983306506653328     50.641709565065213
H      50.146413471943106     48.034759214452045     50.068347887020060
H      48.244561577163083     50.755269931294315     47.866430731083177
H      52.175469223287273     49.799036500483076     50.395261944634747
