38
lj38_benchmark
H      50.000000000000000     50.000000000000000     50.000000000000000
H      49.642645187533113     49.599433821491644     49.949503882742711
H      48.943728554724643     49.579137771022260     49.810310900808240
H      50.004521032614242     50.303581693281245     49.268314486450052
H      50.111840562013491     49.796354108475761     49.429409844751802
H      48.963123855058463     49.320217933156620     49.123017744722127
H      48.216294306534159     49.470915347042478     49.759421373789060
H      47.688601437624300     49.161428168921866     49.740236509638798
H      47.884538657922882     48.689866004587358     50.158605939216955
H      49.024588057516219     49.633086583281830     50.309915800249321
H      48.317620249478132     48.480643960928262     50.511143824622110
H      48.583901068161559     49.011076223957858     50.022176187169784
H      47.709434434210699     48.154476065438132     49.947579129611626
H      47.627526333590509     47.970760313003531     50.450654534687231
H      49.597582786065992     49.061575843791687     49.070741662372583
H      48.760077336675685     48.864270185425774     48.924018891925769
H      50.499115190389304     49.675103318843071     49.123559613368741
H      48.844286227800431     48.593891073827194     49.546499946887444
H      49.317313945324983     48.651058362519599     49.800126174464111
H      49.489955478823049     50.254654633770166     49.650968226330932
H      47.196340003843609     48.086751085351189     50.693841746185456
H      48.099088530815663     49.060763745993860     50.564850014133377
H      49.561851646921035     48.425103132309268     50.233993326227640
H      49.910659147831609     48.860935610292131     49.785608025311802
H      50.295990699239113     49.539991902140954     49.894363168583276
H      48.586602007615880     49.463928653889027     51.044694031820001
H      48.862176311893577     50.163938973697277     50.799992163702946
H      50.355292904881424     49.888631116969535     48.461931403801941
H      46.754781797982346     48.706645029327930     50.479080882516342
H      48.922671806881127     48.026078026553527     49.957610462200286
H      50.221111241109284     49.675711978562454     47.950326319526226
H      50.843986018575087     49.075675843524060     48.710795920896395
H      47.514999252912403     47.748091939648546     51.223156544369722
H      50.852596381716140     48.837415161887904     49.276133842089585
H      48.523092578468010     49.665627842308190     50.529343285625451
H      48.408661309593391     48.196603540223819     49.270577282684187
H      46.988820564872832     48.187083919424303     49.967107407116146
H      49.845981954499223     48.413940191968251     49.342438520182242
