38
lj38_benchmark
H      50.000000000000000     50.000000000000000     50.000000000000000
H      50.081538683948331     49.718471359338380     50.409825206112984
H      49.314098628516824     49.653699149639344     50.370409589586849
H      50.250541289415324     50.632237945907185     50.394597744840929
H      49.547931776261073     49.080874386148153     50.106240943135234
H      50.470945149525640     49.689743010947737     51.095297744763741
H      49.642227419201831     48.538587891348037     50.389325841476733
H      49.641119752843217     48.971852596668356     50.889980198657113
H      49.818619917317385     49.265840342967145     49.658893039992243
H      50.110095524396833     49.042776344461871     50.428359098305080
H      49.579245894984069     47.980579302371233     49.882669008244569
H      50.069792568859299     50.181953736156984     50.770997804031609
H      49.164016144373790     48.064722898296409     49.259816110369911
H      49.033160575500467     48.935913279162314     49.942129214400317
H      50.571160133306840     49.774841636270693     49.644203196134718
H      48.471530707651183     49.213194308616259     49.456418707146327
H      50.048731362588462     50.357771649033907     51.328332666829652
H      47.903879366942213     49.011763669477268     49.172154102090730
H      49.453756593453825     49.995305122864643     49.828145144066866
H      48.658160486795595     48.599503626501040     48.969723119702934
H      49.001801131326019     49.347312756146600     48.866116958084639
H      48.481816963680828     48.027201771864398     49.683362589271567
H      49.857779423150681     49.788373958963248     51.206219286610747
H      49.505964814968628     48.929337557348269     51.398820855108632
H      48.581042020383208     49.610830694850428     50.698268843925185
H      48.795791897936468     48.498341588432979     48.318094381819428
H      49.892705416456309     48.598263455132674     51.341051214006768
H      47.948655294970941     49.458398900894501     49.821137157509966
H      48.188463356753957     48.862081479143363     49.828624982219324
H      48.085193304271208     49.206766446340630     48.531313151730146
H      49.016262030037090     50.400717552607311     50.368618870065745
H      50.553412319289755     50.947134011546119     50.117971930221991
H      49.803113351310920     50.188367823444437     49.381794160656924
H      50.237503685740364     50.301639219377478     49.108704631859204
H      47.830614292210306     47.748277710618730     49.542913899838297
H      50.634581483379108     50.152700623494262     50.047036065887944
H      48.424172374994939     49.897072623652541     49.624799825194721
H      48.815794150652351     47.620210348767593     50.129992003939066
