38
lj38_benchmark
H      50.000000000000000     50.000000000000000     50.000000000000000
H      50.421259728245012     49.579520422440666     50.376890400428401
H      50.109260335736046     50.526633204191477     50.164820942190524
H      50.780848214362855     50.946591897712288     50.047199972093765
H      50.998162403011634     49.778409194836037     50.463025347785582
H      50.621752146691996     50.657902975312659     50.540429333106019
H      49.454767985860187     50.220657797176429     49.966576518964381
H      49.100436477300541     50.405168651971543     49.375684654254513
H      50.173818138033461     49.363055399383484     50.818915395539477
H      48.982414545812603     50.193385306908176     48.654627915515498
H      48.538312023320465     50.781880598213533     48.711950249556025
H      51.355075995373895     50.836320833749156     50.256286028077909
H      50.440479480497700     51.532569906837139     50.215712512675523
H      48.381631405568555     50.328886969334292     48.963719846900595
H      50.255043696859708     51.411332988972049     49.656433307019334
H      50.122947793028786     51.222648440476490     50.780462836274765
H      51.029090155533254     50.537050992960609     49.514572202979231
H      50.864475770114858     51.996738265026792     50.621983570300259
H      49.068395948988680     51.368391458011132     48.837008750843474
H      49.507767760237854     51.484353877402768     48.432008014195759
H      50.489089698870252     49.896948941006201     50.816762624097592
H      49.523957377817176     51.506476799236452     49.767433216670902
H      48.113479647046717     49.903810695947705     49.448831205262614
H      48.047521573185662     49.542508750404501     50.157097386721809
H      50.074550817330525     50.328472734506406     49.270356459947394
H      51.071549736311326     49.115426595283154     50.237370334902288
H      48.892004926260640     51.283093292121002     49.322405009359656
H      49.599429023896576     51.010221447199257     47.981651513291645
H      50.710965251374070     52.219576256152870     51.173083732594201
H      51.141865952178165     49.995861047636112     50.976034507987400
H      50.362759429369198     50.502731804238962     49.682939971254193
H      50.461841203749913     51.080373088956307     51.379703706214052
H      50.138784578506993     51.585826659879274     51.486350994324603
H      49.928005657391417     51.859056785918042     50.213910430873490
H      51.021916227542292     51.727538207296313     51.254429436002049
H      48.888999320927645     49.707733108251148     49.221347666718366
H      50.144136515228510     49.732573585571700     49.489847582046607
H      48.042160921137409     50.985412260573376     48.691394418063105
