38
lj38_benchmark
H      50.000000000000000     50.000000000000000     50.000000000000000
H      49.566865565681510     50.161645040885901     49.649255480357048
H      49.550888853062148     50.593341930616994     49.398950127885612
H      50.261805671475180     50.426002039618439     50.597762534553574
H      50.129151047640676     50.766964958227511     49.349492274816491
H      49.893964903628444     49.791305228530867     49.254646960303432
H      49.877076461275728     51.136780998808206     49.886104995191914
H      50.002805472440343     51.613233465657892     49.812614175571014
H      50.092856240475804     51.242020552493543     50.642661414346520
H      50.097360378645462     50.318762245210507     48.707466802817464
H      50.321913494008427     51.047920474632143     48.979736158572372
H      50.726390818243679     50.687476476959027     50.066234555277205
H      50.172996331536467     50.824293393579403     51.073148952561588
H      49.673600335090555     51.504864256901200     50.710430853624210
H      49.605583032058263     52.191571555723037     50.622414061890240
H      51.021460438289957     51.198927316864783     49.029997679037606
H      50.062646983400782     49.739985620996066     50.424606190687939
H      50.697586817216049     50.307925979900418     49.441616620586942
H      50.733532572841256     50.057097942874435     50.199885449213269
H      48.871458809444263     52.457694921899630     50.689017380687147
H      49.363436487863140     49.853796710955493     50.354643467576985
H      50.705242142203154     49.780803311163496     48.833988650718865
H      48.868908842183743     49.919466900423259     50.810683933386770
H      49.651332613272089     49.080589002922700     49.422166721756000
H      50.453905184496101     51.643809922558177     50.515569563881442
H      48.416531707601024     52.041832088519939     50.523290967166147
H      49.477999328995885     50.521215549401376     50.281617191214991
H      51.364332147068609     49.404770666496788     48.760634201259073
H      50.303598626462602     52.182764578113492     49.428875052725843
H      51.611950684936637     48.934946596842259     48.654420424671642
H      48.049701061377533     51.642683051880596     50.807550719299279
H      49.040163577150537     50.939420660076898     50.553087948419076
H      50.228353206509397     50.101961063574024     49.495578256784462
H      49.777508968026851     52.037142013365454     50.076307783603909
H      51.289993805676509     49.839192647426785     50.618458949216929
H      49.893975770768691     48.857900964156229     48.812710017859530
H      51.203723531862764     51.066484909509583     50.170065155345497
H      49.111043309096218     53.077312164291669     50.703828921762792
