38
lj38_benchmark
H      50.000000000000000     50.000000000000000     50.000000000000000
H      49.712385242172779     50.314629972266232     49.409227486558684
H      49.897810452000307     49.564896537933343     50.613239747279671
H      50.241923118800663     50.225525907507155     50.422619919680166
H      50.085940070278866     50.531156814265941     48.996187612057838
H      49.796379748281893     50.926609039762418     49.356588527108542
H      49.485211854911121     50.850386863835247     50.074633248035013
H      49.141208386763559     50.070024644129532     49.399381667314628
H      48.528406390991748     50.488320286769657     49.703672931209027
H      49.882353938369640     49.675739657647135     49.503086065878215
H      48.654285312009833     49.930390490903562     49.268603349355232
H      49.855503230021746     49.175870520033037     51.259074096756734
H      50.144878910560692     48.723310076086619     51.701273625048891
H      50.048325457150490     50.589544920372553     50.767489945310558
H      50.766695658144094     49.835630613233803     50.745965516937652
H      50.325964926421705     50.239019255370607     48.371895895558332
H      48.649906989888429     49.869588363800283     50.059205749354028
H      49.432578383800163     50.437278412604634     50.973186162747055
H      48.222448391000135     49.692060170378433     48.645357722870216
H      48.888899525933631     49.584092088490863     50.746223079042089
H      47.983430733281914     50.192979758223530     48.889362720068142
H      48.758668948781882     50.445113532830213     50.879933998461155
H      50.539255285923495     50.962295247833119     50.727863237527572
H      48.166133596805579     49.135066987827706     48.155081510244898
H      50.153105979022193     49.259399272663003     50.054195667886738
H      50.625387397261264     48.907730366817290     51.594572234442658
H      50.973676060137947     49.784445726134827     48.357763693103522
H      48.081182131481093     50.678420859097720     48.790096405188784
H      51.496761192137448     50.278580180158421     48.211929088383528
H      50.442762500572293     50.659207074299921     49.515577052106536
H      48.271245113353743     49.387641944315760     50.466297007638801
H      48.575766492522604     50.866752692031021     51.387200541393980
H      49.562602759703495     48.853598554055225     50.173411460076309
H      47.895409242377127     50.834707584437083     49.717803308832437
H      48.253008922248895     48.613090999632114     50.482906086351207
H      48.653380878310948     49.066002864657676     50.176322861011286
H      48.806785745698711     51.011296335147691     50.812246300001334
H      50.361789172414163     49.422531086073811     48.332819550813348
