38
lj38_benchmark
H      50.000000000000000     50.000000000000000     50.000000000000000
H      49.911521341826145     50.737216762503365     50.037823848728685
H      50.599085328960321     49.876834116017136     49.691050141496383
H      50.287631059438631     50.179771068845874     49.217859000154363
H      51.151802342022684     50.051990362599540     49.499209547022481
H      49.561895757454849     51.243730542316975     50.048558104415505
H      51.768854927675171     50.523150148978544     49.468273965700455
H      51.854236308919994     51.066983945617949     49.726618906165150
H      51.501842668278663     50.927710034010822     49.298845244218015
H      50.216298156647184     50.723865373552634     49.298293856316022
H      50.261051537026404     51.081448310528089     50.197721988717795
H      50.648296301821631     51.517828728163934     50.599490631681419
H      49.501025114755151     50.307475164463149     49.874496849701984
H      50.205444058336731     49.243105634762280     50.066962531783389
H      49.961952485137978     50.167593668847687     48.773160161502787
H      51.494456368524730     49.345991487874926     49.347359509078032
H      52.041172035577631     50.580344884116812     50.333215420681668
H      52.414603457514716     50.318942194519636     49.683681137208680
H      49.432488128613272     51.006524551836648     50.704747034146848
H      51.431482164241800     49.373830596126865     48.670238905266707
H      52.169378660075459     49.267655686466881     48.496163662918505
H      51.309700991229967     51.285134241664906     50.669488832009471
H      50.966937965197680     52.184142325916234     50.729567359714551
H      50.288721720276044     51.665825648474332     51.131959547361546
H      49.986515955788143     51.570148266178641     50.201569651494694
H      49.447841483324837     51.922442876310441     49.984999934544298
H      52.300185164977421     49.303346387239444     49.174331352083527
H      51.623041876615702     50.876306006865427     50.414241779246993
H      52.675924197339071     49.821958702553736     48.895979799877949
H      49.564487067900288     50.610630637569443     51.156631071360749
H      50.370991637931830     50.917956325255140     50.850421901768307
H      51.822889145550114     49.862090253018529     49.356467018647692
H      51.841498559079689     51.229021992468361     51.082731860460825
H      50.943785920885588     49.134787868303732     48.366780903652995
H      52.495508458820908     50.470865994505814     48.553290355821090
H      52.837825024910515     48.824551450444652     48.501976789379327
H      49.905067933060330     50.077871173576661     51.480872094818899
H      50.891103280214573     48.788765010722905     47.811891220341920
