38
lj38_benchmark
H      50.000000000000000     50.000000000000000     50.000000000000000
H      50.733383086953083     50.040714553445270     50.166647523424309
H      51.395237530447034     50.015902573311159     49.776749922557229
H      50.463424275733551     49.538299033119138     50.054907700292368
H      51.357603729245660     50.788458275552607     49.551710549358063
H      52.069227357316457     50.102539108380320     49.938029524111414
H      52.102952463974141     50.609595875781864     50.003078349647119
H      49.908606281912157     49.305732539614255     50.258934270450574
H      49.490278277975285     49.115018997088931     49.920431651179079
H      51.285246473637081     49.362835427971348     50.005323497463344
H      51.536365594777500     50.896656931588645     50.390819455896199
H      49.893642648751552     50.721662380453687     49.860948625930227
H      51.545784242556977     49.133516746455356     49.647688729703972
H      52.261284028366859     49.692762230276628     50.491938621485595
H      50.281967480275917     48.832534047310006     50.560631960387063
H      49.835116189055832     48.704294385715144     49.334692191978426
H      52.139512101697612     49.240945703831613     49.596416585590482
H      51.015771742652809     50.852157724689171     48.939621539944902
H      50.206689628926668     48.168194579937733     49.629955802140785
H      49.299307447274082     48.234880806114887     49.103264107570297
H      51.545509673462682     48.821014031416823     50.058250144794783
H      51.365363206260660     48.575286404933848     50.740114053259866
H      49.460797886975044     49.926962920157031     50.436320194063214
H      51.484804943769149     49.384800657653543     50.748342719377654
H      52.806876446342315     49.872803688066753     50.638834653346358
H      51.799056693073069     49.699643095944033     50.168312897064460
H      52.438414554844343     50.474679652452025     49.608980935717035
H      51.929265819243106     49.253792164985875     51.230378913593071
H      50.708927972767057     50.895522488605174     48.249621839346318
H      51.040939645310374     48.736179636353818     49.478235610883289
H      52.618029076626144     50.001696585076516     49.964125361655668
H      51.911258238239284     50.310933328363319     50.535838274395644
H      52.867072683213735     50.651281335984386     50.809219634933534
H      52.666963394066428     51.203318774260218     49.408727575771984
H      50.350579168243478     50.556836040403297     50.350824113295012
H      53.259157059919062     50.710763692715055     51.214454404702430
H      52.462985566897139     49.189290496744995     51.455713932920162
H      50.407481115628926     48.749157005814787     49.827983218632113
