38
lj38_benchmark
H      50.000000000000000     50.000000000000000     50.000000000000000
H      50.666669963109342     50.189398868338735     49.951165150657538
H      49.706864385834187     50.363647814286857     49.628831279069907
H      50.846407681857059     50.137740151171997     50.512441984455322
H      50.875955266212451     50.611880437880288     50.834531527353889
H      50.515507608332733     50.089253342903362     49.387845667559809
H      51.078756404912156     50.010420971763963     49.307853303764176
H      49.801858337716283     50.024517987175429     49.250238724792716
H      50.969552951245603     50.881472813511976     49.867724926982980
H      51.374205287510080     49.659356542646904     48.899657881321431
H      51.343687310962309     50.421573852588892     51.017495059154015
H      50.051584373500539     50.929755485833269     50.048087556262900
H      51.579593224430468     50.834248838265268     49.602241862365837
H      51.440338710478933     49.843807658849514     50.854462684600520
H      51.036459204918806     49.655690796414270     51.345913909479393
H      51.588738278095015     49.609860600732873     51.383398617764307
H      49.675262311803273     51.045311786935557     50.414834949635747
H      50.911069793767197     50.381124760755092     48.629017686750409
H      50.194273833597485     50.271623831232141     48.749433009446577
H      48.949522126097996     50.815630625390739     50.385430247763438
H      48.308527209452286     51.251704424613678     50.419364869331929
H      50.286089194333343     50.982331035548135     49.529082897253645
H      50.761944353474789     51.135165981223921     50.609514709496473
H      50.082894464838802     49.775449506653679     48.488541296982710
H      51.709120942206795     51.074421436539645     49.024934264981560
H      50.186447527170657     49.160395948300227     48.318724894859557
H      48.744537248395666     50.511581992102592     49.689718508406095
H      51.707659849067952     51.434997389574434     48.383479703977926
H      51.461213621656697     50.534730824027839     51.629429418476889
H      50.745529457041521     50.317824199056176     51.396303821008843
H      52.223963814855750     50.008651189286134     51.450904562734834
H      49.859322381816490     50.644089691284648     49.032925589483305
H      51.648442160342704     49.103758142076678     51.769743505052283
H      48.174502566242012     50.693687048837717     49.361495216230814
H      49.244678405025859     50.044698430557148     48.828342346939017
H      48.558861174958537     50.413481991453985     50.351275944475866
H      51.017535224389263     50.049301200002809     51.929904243982840
H      51.148210659362057     51.310780554783015     49.657436399436541
