38
lj38_benchmark
H      50.000000000000000     50.000000000000000     50.000000000000000
H      49.998092609003798     50.504369083714650     50.183024199396442
H      49.932674190619963     50.378683591733292     49.345278601959286
H      49.546443949874330     50.037541275870282     49.250869328480192
H      49.869641879261998     50.378409859153152     50.939322126905914
H      50.053091480194198     51.066767170818601     51.113464911456326
H      49.395301582203409     50.217461822636579     50.886007150590565
H      49.567953971059630     50.855834783347788     49.973188494632552
H      49.491882472430085     49.552343943388458     49.544921204343765
H      50.097374432700335     49.817248382269135     49.062660070745125
H      49.036041603676814     50.395780666990888     49.391013946389023
H      49.271955618414744     49.579240525817603     50.015735073083462
H      50.051293236630976     51.472686371931758     49.974080926871139
H      49.997810986730997     51.583782805791039     50.520939612216090
H      49.052382292275631     49.942122797872287     50.301325736140832
H      50.498529569616998     51.583425672903033     50.452679269794579
H      48.993561652153183     49.118613527894027     49.609982063604548
H      49.790108351593723     50.540241827335805     51.613506592469562
H      50.253871469377238     51.648710400973755     50.946660021868013
H      50.738520203299316     49.728107827848653     49.246161035048573
H      50.088537186984972     49.118258314130230     48.815141142158936
H      50.106440050788287     48.867780750304334     48.143588277987320
H      48.456364424340087     49.963124033145711     50.338922792592889
H      50.352286841660352     50.319764380354435     51.862661567511431
H      49.618600116424119     48.860517503489270     47.835469712157689
H      50.551117940796388     50.953376824773763     50.265484187238599
H      50.121486200583931     51.435935518930492     49.440842332497986
H      50.690842872933750     50.772411079562950     50.929377410557819
H      50.512000677150823     51.935948781197951     49.589455918102040
H      50.283228095922524     48.863099949878318     47.617991638778420
H      48.328544045433098     49.947525875071911     51.099171745599556
H      48.945810261941006     48.703265839709431     49.938907954503506
H      50.513202896889702     49.793962381794088     50.556746090964552
H      49.567042489320457     48.966033769919569     47.053022543277187
H      49.301907622253985     51.462245499403991     50.815566979730988
H      49.643380473467772     50.509322706123278     52.150065962172675
H      50.271243302256359     52.452575904256406     49.047748511804372
H      50.907848721992607     49.455391754887572     49.818816929559993
