38
lj38_benchmark
H      50.000000000000000     50.000000000000000     50.000000000000000
H      49.666710695081669     49.568514372916653     50.396353404923239
H      50.068759798952698     50.342226615987698     49.307317544777675
H      50.250956446834351     50.754604749212575     49.895189094453272
H      50.054289426798839     49.658113641601858     49.602999092437322
H      49.338578533509363     50.182196763655647     49.089613221244662
H      50.632442424241724     50.932128799783207     49.532451343689431
H      51.206892294823284     50.656057464049645     49.645859879982744
H      49.162334913091982     49.572820686882501     50.114312047328255
H      49.087177001113382     49.422456574266583     49.513174627314676
H      49.043256859163826     50.158713665289959     49.630364647403169
H      50.160729000626489     49.629292828503573     50.343239836176068
H      50.562009821224088     49.265553749111994     49.199055789670318
H      48.547646070022275     49.832991248050924     49.463206240136699
H      47.957163674878913     49.676270857720901     49.591935044314631
H      49.568823061781465     49.588893544398253     49.780003838468602
H      48.038350012743280     49.093190792438534     49.178395446787171
H      48.382397162903963     48.587345420533666     49.041760741278068
H      47.594020949657285     48.565575959230266     49.582568818355192
H      50.972884682347747     51.099978181962555     49.022125074584515
H      49.628847235977716     49.938502220067527     48.492504531926208
H      49.173670005872737     50.351957442744705     50.197326741664952
H      49.222433867284778     49.480562857185021     48.088699365567663
H      50.054803895186311     50.657334861911501     50.362099592628354
H      50.251507448832768     49.122472454219924     50.396212264398571
H      49.558509482535499     50.257431576162553     50.507628376450945
H      47.051888052621734     49.047829502692686     49.876049822613531
H      50.245227047171859     49.453662896679084     48.502754096839311
H      50.380999711840602     51.267565403550783     48.745872200933050
H      47.120750672088839     48.139335071842396     49.772410413023863
H      50.484703393032490     48.610583603089808     50.271327782669687
H      46.649812522692216     48.008432428169399     49.869754970901560
H      49.751321440969257     50.696172805233466     50.888018671455058
H      50.532351685389948     49.164582839100262     49.746882629711187
H      50.787675034579216     49.800523345010419     48.468321003266347
H      50.262149336250921     50.866910524919099     48.215911098906496
H      46.734791586198277     47.329933256140784     49.833081765732395
H      49.078398534333409     51.073112305624129     50.067532939988801
