38
lj38_benchmark
H      50.000000000000000     50.000000000000000     50.000000000000000
H      50.299951154230726     50.375501259292712     50.214648470282157
H      49.405032091617635     49.614049135485466     50.019828958577499
H      49.537960646102604     49.553335566188153     49.275044782074893
H      49.097670831917043     49.210261555776398     49.610472343113301
H      49.382015739539078     49.017527100809836     50.148341943603661
H      49.625691647182023     49.688358123616098     48.585248574879351
H      49.252989562969894     48.802129279152631     50.657359811359498
H      50.192764848183693     49.268834862512342     49.989113947985821
H      49.054537252930764     50.045908327230762     50.259524593287352
H      49.018789791650363     49.448028540486256     48.409571522309612
H      50.846112052902669     48.905666447662036     49.919441542620838
H      51.108907138612004     49.367982267034435     49.829967936484159
H      48.769572120688146     49.132330884535776     51.196400307264796
H      49.149760913933456     48.330511033815824     50.465273846281832
H      50.025808119188085     48.765377921542651     49.783610177617739
H      49.026969227712016     47.671978767048472     50.669420523486188
H      49.986104723580077     48.091481897306785     49.672930024070098
H      51.423970392066288     49.288474902133956     49.435678273183932
H      49.392278388718260     50.191848887601509     48.394267244322428
H      51.739042418185036     49.173376713405055     48.816889135355161
H      50.307155923700627     50.183993153943931     49.459810738066182
H      49.366631311493109     50.365187839849227     50.912258283358234
H      48.499103862548637     49.036763599517812     49.779843942706769
H      49.252017820779365     50.663063957793135     50.394185471011845
H      48.898971325835653     50.199111969944568     51.319504858919217
H      49.400824332626705     47.683663541541584     49.395165509479753
H      49.965433926595637     50.444050934711008     47.954143332020230
H      48.992864605571796     50.159595331515845     48.754666997161408
H      50.582423605484209     50.370188033359675     48.864889448925545
H      50.887240630656009     49.978409632303780     50.252787129240389
H      48.338823240753882     48.461610158334686     50.130631057367047
H      48.968680113205366     47.932078942666450     49.179328374217100
H      50.216397971716866     49.280354065257164     49.416865678335327
H      49.791949375756715     49.183447320134213     50.894642270298000
H      48.653089330937860     49.436199402163936     50.302532700659924
H      48.371848427327528     48.574938960594494     51.067361896155873
H      49.197808681196527     49.812258991712014     51.575056705236477
