38
lj38_benchmark
H      50.000000000000000     50.000000000000000     50.000000000000000
H      50.313414588112458     50.410950606604800     49.507964956145180
H      50.503551727719376     49.801885003475945     49.651261094975339
H      50.557483927897032     50.457988840676940     49.982023503142123
H      51.092763269658086     49.897812973709840     49.478792669607230
H      50.168783766394171     51.000230118029300     50.005401357749435
H      50.729674090972232     50.149765585451654     49.185646954873071
H      49.624911260773040     50.576395137739212     50.152788678708411
H      50.680481478428618     50.912715486123780     49.790105407208010
H      49.377305323332756     51.290678830991070     49.925234267080782
H      51.196687962086202     49.221587040349156     49.418719354335323
H      49.926423199340292     50.287588301882849     50.681729787510129
H      51.703750281063122     49.780665684820420     49.475606597188886
H      49.678353402556951     50.555493703813880     49.280353340858433
H      51.768662724128788     49.806241106943340     48.920837558965339
H      50.525176481375077     49.946024212109251     48.527993925089106
H      50.580113376779536     48.961979099223981     49.083128417653136
H      50.053723625530516     49.479786432359454     48.645722432461987
H      50.683030419068700     49.927416244493152     50.360425886359899
H      49.967538377605813     49.923205855235878     51.237090731824381
H      50.448487071982512     49.396663563899367     50.920987503001079
H      49.422417684803861     49.676986653013593     49.629759119529027
H      50.068609330135764     50.322816967777378     48.433491524021221
H      50.295701348502945     48.439064094928519     49.167328747853489
H      48.753734219300867     51.219667372106628     49.535670645839595
H      51.248575717618522     49.419479368701026     50.539287721098034
H      51.007898897765891     50.216269575745891     48.778244269971708
H      50.490070072592196     50.875833201251119     50.406240997363042
H      51.267196005338015     48.759873898301322     49.123270354157604
H      49.740202287413467     50.992657367431164     50.591532283320781
H      49.689455795037709     51.159008588818352     49.452232986011097
H      50.547531517699255     51.376238685052982     50.143781096414287
H      50.540744157760685     50.581353900366516     48.467426680855105
H      51.192195903941624     50.909150038590944     49.218948682038558
H      51.562447491293618     49.673607842958816     50.895049724787739
H      51.438993414730689     49.941860210143545     48.426401949505490
H      51.464465960610163     49.331656233080103     50.088297992478658
H      51.231258170295149     49.836108621452119     51.404531918933642
