38
lj38_benchmark
H      50.000000000000000     50.000000000000000     50.000000000000000
H      50.395028390771991     50.341001391243282     50.125682421113879
H      50.318815920983980     50.708272409386694     49.682684782317146
H      49.612803718496849     49.729561369733943     49.368641065990431
H      50.795453885558771     50.255920551359324     49.458472562511119
H      50.670922623153956     51.385277034952551     49.934064295415709
H      50.650434766744105     50.943728884946651     49.052937082592443
H      50.724351923036451     51.858953164260889     49.414402519316013
H      51.375047262103948     50.013691510453775     49.098130418022173
H      51.779029643495157     50.117636548939686     49.390149709592436
H      50.036064744114064     51.252044880493386     49.516601280741114
H      52.230720067977401     50.700154656500466     49.249863266432207
H      50.397796101234924     51.055810860155376     50.555103060880448
H      50.339443440285471     49.738963433191600     49.465407623079408
H      51.631663878702696     49.325305105395643     48.961163250866576
H      50.504939730154156     51.652210849235807     50.737525531250149
H      52.313653195929341     50.297872027951975     49.552593390322812
H      50.741186758426878     49.842412819366196     48.801135581247955
H      49.694179010509757     50.761505125146044     49.784919230885762
H      51.259282843192935     49.026709887599630     49.459913924514666
H      50.378718674194268     49.908536963919161     50.388682709777811
H      51.747566060961034     48.471737093619460     49.364548996277890
H      50.779754350255182     52.074942907411959     50.746817399850094
H      50.543850526038220     50.788747218557887     48.408391639451473
H      50.806186335431264     52.446115650373841     51.389348148062936
H      51.740635105407740     49.263673656353014     49.993139048869544
H      52.223245040801245     48.992720558080208     49.193182015347325
H      50.113911891188557     51.496179180830886     49.957019117356090
H      49.619445086939642     49.101278846552901     49.466024837693588
H      52.146993875026240     50.648054724270025     48.719259302715045
H      50.993765764498306     49.922852035407459     48.349164969113239
H      51.037443535825730     51.909608826216555     49.021562654071957
H      49.851261555454528     48.588618139200264     49.386783790614558
H      50.915499729314085     52.413312595785108     48.522867003353632
H      49.238418661829726     48.129733957439953     49.547943480517866
H      49.937456140296860     52.099345382350144     50.707704622689178
H      50.343741732840414     51.520898093491816     48.667665340461042
H      50.548175134523639     50.357601778690317     50.914311134207253
