38
lj38_benchmark
H      50.000000000000000     50.000000000000000     50.000000000000000
H      50.587641368537021     49.764521917410804     49.849607249005565
H      50.823169035483375     50.126313556344300     49.518741140651720
H      50.217903265025711     50.731871264793014     49.962319915673625
H      50.759358273131959     49.394251310022540     50.340404876761731
H      49.979198861907236     50.196832584969947     50.584433513339178
H      51.343465088518535     49.852026772716719     49.956936281298923
H      51.460809852796970     50.527791376431637     49.682765289773322
H      49.413289535958512     49.687851613412874     50.813484054149058
H      51.240586239642134     50.688724101312637     49.188488951438465
H      51.466981503537056     50.591458309079094     50.297273497686632
H      49.423933176450497     50.356304928158202     51.036604754223802
H      50.973506644357144     50.467917031180285     48.547080661583067
H      50.331125968634453     50.903032268294020     48.608085236303054
H      49.661408820903901     49.134257881954767     50.375145797709649
H      50.493810082852200     48.791374488278215     50.253865425520480
H      51.978232827860154     50.444740624337705     49.958743639549084
H      50.808054439556379     49.689557469294087     49.088149450933628
H      50.280827110468728     51.362124290326697     49.220508732990304
H      50.048590086416148     48.553850805253894     50.517228987457926
H      49.594582744486814     48.378903908468843     50.615258770097910
H      48.747225753579634     49.874848944663967     50.447256762989170
H      48.398136434211068     49.381372907853745     50.154998345852064
H      50.325649869469352     50.319465179780565     51.077479005222138
H      49.911065417486391     48.181179246509480     51.059875285431644
H      49.754716299653765     50.775491847012326     50.788874833421211
H      51.941865693211810     50.088052478288404     50.450590319435513
H      50.186078361284807     49.362612750284477     48.959889903043774
H      51.131813719438313     51.205908646692755     50.107504226177738
H      50.354919749977505     48.132345555973508     51.530612716027747
H      52.074138725176375     50.033262037235581     49.457530739316525
H      50.153031796843585     49.030772095776094     48.427256742966122
H      50.124510904487906     47.531824345001958     51.070196294331517
H      50.729901014287513     49.913456954969263     50.444528699483833
H      52.448906120164700     50.002641249981359     50.061159976058995
H      48.984503024901933     49.174762387840097     49.974757600718519
H      50.892349411804403     48.545278405960133     51.627960267892817
H      49.865108412002570     47.143361073240008     51.627933811659958
