38
lj38_benchmark
H      50.000000000000000     50.000000000000000     50.000000000000000
H      50.330088255287507     49.857436646933600     49.461095871135548
H      49.909619837090020     49.854261287921389     48.928819039648744
H      49.356777454970839     49.982278104816729     50.236532549217451
H      50.869948460892978     50.046695428906204     49.972412030282406
H      50.738424039417744     49.842366200440438     50.715112510893782
H      49.430857122961740     50.312428185509397     49.814379370123227
H      51.293122782357969     49.907363091362690     50.788988910169749
H      49.550605082291106     50.880087894839356     49.560922158705004
H      49.268245713662097     51.179229354083724     50.216711761145049
H      49.189845660506705     50.156309372079257     49.350803778317243
H      51.543969727992405     49.458694502818702     51.080698352490238
H      48.818493311996498     49.512496192231460     49.094341987534222
H      49.068950491471242     50.765970786039318     49.659452660919641
H      51.705231892335121     50.453805186073204     50.986291823357547
H      50.656642688015857     49.210287174281198     50.482028281618099
H      49.418440859546180     50.137899379846907     48.644269729701314
H      50.745361789542976     50.462942955751679     50.996926728295350
H      49.976350247774398     49.619717231620861     48.417318057185454
H      50.553759330736860     50.457849601415930     49.303195918822638
H      50.679338999389266     50.958808676906919     49.578569242760786
H      52.198942083719658     50.866176461152961     50.785517841498240
H      49.318541956108518     49.381963403650232     49.833243960008041
H      48.830140437438558     50.044998560224123     49.977550795308488
H      49.303164441760508     51.819801973654180     50.039875620374289
H      51.292544846481277     48.918644021324319     50.894226123036077
H      52.277955390981610     49.578478615699829     50.845657117371161
H      49.927791088058697     51.395866952255354     49.882992453240192
H      48.675285107649586     51.505670354287034     50.129238861706547
H      50.856778263301059     49.502322990095024     51.370076999057758
H      49.657871241296810     49.208152103643009     48.385984959634754
H      48.437772963299388     51.963755180539707     49.665546806078723
H      52.090603867483900     51.278274603762341     51.376110773310536
H      52.728260755445696     51.227707104749868     51.497385032123496
H      51.354734220675795     50.872259541213239     50.970422544698792
H      50.871581998428354     48.294769651265348     50.920431375323226
H      52.585501668742147     50.544831232351207     51.113164888767948
H      50.079289831830074     49.317562129492060     49.261478353743691
