38
lj38_benchmark
H      50.000000000000000     50.000000000000000     50.000000000000000
H      49.379332301254983     49.584832076998772     49.934323788764161
H      50.306091379197120     50.430666921368172     49.616310917324107
H      49.908762053576659     49.327397961785728     49.505875762345163
H      49.559220975150637     50.172562677108694     49.772279374731212
H      50.388100335420759     48.887374836025472     49.772817937231608
H      49.250647872787077     49.605271023864653     49.209859409286871
H      50.633280264594198     50.867615641427314     49.653208126026144
H      50.419607118714353     51.221785913222817     50.177636072905223
H      49.785316070930591     49.778788832921563     48.816869451392776
H      50.709181710127368     48.410613066706638     50.325759958224864
H      50.979368960447971     50.217263694036212     49.601527013666271
H      51.291018677120626     48.186683813282343     50.417952609290928
H      50.508636378247822     48.372307966632285     49.191783394592775
H      48.905751825618466     49.886773730437923     48.859673073905860
H      50.601309278213094     49.862465246258822     49.946745880813744
H      48.615426159933797     50.569378593511068     48.710063551109570
H      50.675193239839714     48.379491387284595     51.010947505383868
H      50.540902401146553     48.026896982614829     49.767515356061764
H      49.747859153500961     51.207173804629186     50.248536680180045
H      49.638959581773236     50.355682163790590     48.960650795781625
H      51.381805634376846     48.336001532263154     49.846386666417878
H      49.271284169785709     49.811507984026697     50.465522604200977
H      48.448086442954271     50.270791621309570     48.163471896675347
H      50.304159141272450     48.229149856751121     51.643437098075999
H      50.873663631309185     50.107686423195652     50.575316790995522
H      49.744201182516349     48.214042419465841     51.935182031893355
H      50.277660911875849     49.989083750364891     50.616319784648958
H      48.643363155465963     49.697041753060802     50.546649184858552
H      49.989031672932768     51.740835711265085     49.782479350126387
H      49.865609378721111     49.227487410195486     48.430009042155078
H      51.787433864041731     48.057218065612602     49.976849212405796
H      49.666913649047139     50.736838693034535     49.675859652340158
H      50.346388524345208     47.493262408242622     51.898775934445304
H      50.368929233680966     48.807671865651017     51.132838721521637
H      51.552564808646515     48.015664182917902     50.841024481909614
H      51.068474339677799     48.880287344123509     50.122918768854298
H      49.642332529037205     48.554841645041904     48.163856002707618
