38
lj38_benchmark
H      50.000000000000000     50.000000000000000     50.000000000000000
H      49.580236127238315     49.509239825879099     50.114434857814217
H      49.693849314497761     48.917757979445042     50.354281684869228
H      50.195401181991379     49.389388408905909     49.622134027921589
H      50.177736384139649     48.498636582800756     50.677197604563119
H      50.189515315772979     47.993622084184700     50.777092563852825
H      50.232674708541190     48.929361249486426     49.024658979522641
H      50.113745931380926     50.475417818457551     49.380102020623823
H      50.644180218384598     49.512494397358488     49.323646733125848
H      49.026876091993586     49.935161529826928     50.418181717945956
H      49.361651434761818     50.494970919541800     50.667404973251202
H      50.845004508240898     49.140269600591424     49.885485233932364
H      50.575793416272894     49.960307980882860     50.207754542212378
H      50.431536417985043     51.155208309940662     49.595962181216173
H      49.056584921528710     51.157206564716326     50.994644325548698
H      50.466846809793168     47.502834706895470     50.920954358064996
H      49.674376464330848     47.663331131862243     50.800965646453633
H      50.355755793307807     50.426214179179681     50.795987788809391
H      51.267984171171221     49.393680689065704     49.514498730761630
H      50.213918327911379     47.902486024910623     50.249013637005774
H      51.605011022352727     49.442832485184312     48.813768510389558
H      50.886971539780966     49.696770609659360     48.764817929941707
H      50.992531129660257     50.260426418125590     48.834662547236711
H      49.060535337439063     50.896494496857379     50.400580569309021
H      50.353340058200423     50.076218504637907     48.602615251201328
H      50.304024394654235     50.241283186117329     51.396941979753500
H      50.790106906755923     46.813785517827029     50.670798398512986
H      48.563706282201032     51.173375931277022     50.063771816951920
H      50.730483852809719     49.107085640379424     50.421167538652966
H      48.478614863798690     49.393492914294583     50.612803310653170
H      50.355368019633246     48.522413254690655     50.027626503633371
H      51.301588429402386     50.030558642955043     49.556514101716317
H      48.931756036547029     47.760058153955640     50.966371289899897
H      49.644848608945935     51.552565484968419     51.146786821412171
H      48.810232468146701     48.463122822434038     50.597628900097085
H      48.610053074794806     48.519021773178991     50.088047030671390
H      48.001997377279302     48.966634567958486     50.684346597828863
H      50.830949591613447     50.518779409739984     51.404660632013886
