38
lj38_benchmark
H      50.000000000000000     50.000000000000000     50.000000000000000
H      50.294881961804876     50.712767742690218     49.778616409731136
H      50.536255378408214     49.649331613938223     50.179750417769782
H      50.229539260594393     49.231594391036062     49.902996317173404
H      50.209919739787487     50.714564386107291     50.467674865892704
H      50.285199303046781     50.324271363084158     49.427874893106157
H      50.102786681098799     51.474553953349577     49.751588250799720
H      50.738006380240037     49.551499716187031     49.589408527286146
H      49.922841534456950     49.566496457428443     50.307519495502170
H      50.031154202046629     49.906244060083267     48.942170458994759
H      50.781372080993243     50.303170406637371     50.101249780527183
H      50.037631575789341     51.890349162718174     49.075899772793782
H      50.802198802226144     50.840518012923731     50.786908386377753
H      50.041937589279684     50.985811411260279     49.326928615851550
H      50.656368747893090     52.271186036994280     48.884465194794323
H      50.179876456271053     52.269984789352925     48.308118255553353
H      49.525142302087360     51.171748546035751     49.204510174819454
H      50.077935559306283     51.877421753593289     50.433932029932734
H      49.480620128733300     49.588391946618145     49.181631471773976
H      51.356825241887201     49.604215056505851     49.081159642150972
H      49.747712815411248     51.495078031326187     50.509144414958620
H      50.680192792075808     50.017364750811296     49.051417745763146
H      49.508709154484585     50.306180805234298     50.375665020291265
H      49.877371722630961     49.462499123163660     49.594757609046106
H      49.206165263660267     48.910622929206149     49.218900293669861
H      49.715640729489039     50.784795244932788     48.886690082282989
H      50.990805494921091     51.492713668470046     50.682922742030115
H      51.374892544922488     50.320362950749463     50.808069578085586
H      50.026879998662757     50.367663715492007     48.276340349479675
H      50.914747129751703     50.229765081896723     49.566076987338029
H      50.946370007285623     50.739906505592508     50.279293421933993
H      48.910010364780064     49.566292452526902     49.449310410474745
H      51.481728288026012     50.780154371911571     51.233469865046850
H      49.799011640496744     51.194932495987125     50.029098576438471
H      51.414467292389688     50.506884234107204     49.398937721970370
H      48.657225958802982     49.945326927669683     49.898002008386058
H      49.145010472498932     48.314600217118262     48.815894647918924
H      49.520610826187401     50.603972273832639     49.668337255232736
