38
lj38_benchmark
H      50.000000000000000     50.000000000000000     50.000000000000000
H      50.557978034492137     50.557108449949077     49.894251152829831
H      50.519424775253249     49.968668659498178     49.524173993041920
H      50.686789871374955     49.488565253743204     49.309746648108529
H      49.314798620061190     49.593848311871994     49.916289111482506
H      51.163764344260642     50.688839779170202     50.151033845839152
H      50.904573701830536     51.098004352721972     49.528444796521583
H      49.951117691600246     50.153554287923903     49.392960539908103
H      51.179566694874445     49.045715412426823     49.689207733563407
H      50.414574108576602     49.474806499840547     48.666073979478071
H      49.685861824657302     50.449027944923401     48.830349025519361
H      49.912636642421582     49.644828643391598     48.969604232284340
H      51.815102185967994     48.885553741921001     50.018254419604517
H      50.292643031407685     48.722808953330897     48.914612067574453
H      51.032991731706588     51.184327490518257     48.869413560181272
H      51.673145184788019     51.419833063974067     48.992114480010137
H      50.533199491060174     48.595411577175746     49.429700447608873
H      50.800181622095309     51.770876224745429     49.335362633652352
H      48.837594571303498     49.269663687009476     50.435812311196429
H      51.619388764724299     48.426175795545092     50.583483834922021
H      49.567461501567202     48.979165778242091     50.377103502695441
H      48.658072431038107     48.561459953593079     50.603410023980643
H      48.916845307372753     49.489061522434490     49.447075884719624
H      50.351162092590570     48.648465057856896     48.148386307923211
H      49.676394818500512     48.318405227326750     49.119962093032939
H      49.700754015966240     50.385651206168937     50.525664473101472
H      49.815580452931897     48.410089152966172     50.305175327440850
H      50.267526327946463     48.319729553829703     48.566657163168877
H      50.636084192629049     50.607395774092531     49.242142563265361
H      52.442104323481580     48.649233733726618     49.862137942861644
H      48.753236724928811     50.021713511117923     49.769483866163945
H      51.613123073547655     51.725446253718154     48.324410863402576
H      50.366526259283276     50.404161779179510     48.696417116240873
H      51.300267982209796     49.563806378334988     49.722207369396664
H      49.249675712665152     50.110729765557366     50.552329034319456
H      50.495041440854848     48.014698408049796     49.253080455374253
H      50.140358121605615     48.569755147651335     47.404958346113744
H      49.126910933295463     48.322730062640218     49.965173441058617
