38
lj38_benchmark
H      50.000000000000000     50.000000000000000     50.000000000000000
H      49.269146333660530     49.865985833095095     50.178609640822117
H      50.545913835900180     50.328728923711253     50.342910761442369
H      48.737257162369630     49.815723033725931     50.240257779259046
H      48.416136638228110     50.415405787476693     49.910990334655096
H      48.215519018243455     49.838192193948352     49.988172516095482
H      49.929205749886243     50.769154902426038     50.113351074483063
H      49.497022301952718     51.250177771065339     50.457364479334231
H      49.462942715196291     51.653495834106351     49.949624168869967
H      47.768259619840265     49.948380781664504     49.647384700250988
H      47.727879301420721     49.504956964950530     50.444482388975388
H      48.116211086892214     50.689267215108124     49.331806482325135
H      49.000587247704587     51.231220706725544     51.022857821490305
H      49.776223792648807     52.252668062184746     49.791827732942252
H      48.817082977742736     51.178974449061556     50.347623981174920
H      48.598850140329418     51.070017389104528     51.466097654129101
H      48.647539237142936     51.671175955066495     51.387991190331945
H      49.813792168901280     51.836509184841567     50.596651572626527
H      47.871763116695725     49.198900623144759     50.034672110568827
H      49.747663455058245     50.534517493561836     50.773096080250873
H      47.451598562766058     50.388772574952881     50.015995370393185
H      49.247049657706853     51.833194358397819     51.265558884393286
H      48.343312054880641     50.687273695427798     52.114654021588521
H      50.042831858674248     50.130541088656500     50.938871289229567
H      50.207562359613895     52.462311912976119     50.725010705232293
H      50.112845886786758     52.557469480019229     51.209736491872427
H      49.987395578291348     52.862105770323211     49.764251900240296
H      48.464115846116250     49.015365808994105     49.993553355189974
H      49.632934732646177     49.204889841868315     50.024528703158360
H      50.640062906853700     52.845513864816354     49.560034468068309
H      51.107111009428323     50.039560435361835     50.675717775433675
H      47.582387830949401     49.027697958039482     49.666040449183953
H      49.011163054440807     48.864662189025822     50.072658322664438
H      47.565008518972100     50.419944332176392     50.566581585324165
H      49.363038362589009     48.521888781266412     50.711318303412732
H      48.345350760974618     51.611233697998948     50.135141911061694
H      48.860521868010274     52.069408423879636     51.851975795107307
H      51.439100727255266     49.429008803783098     50.799681465514425
