38
lj38_benchmark
H      50.000000000000000     50.000000000000000     50.000000000000000
H      50.258573328356619     50.043351894937707     49.468114559221505
H      50.637206897526397     50.379191426477107     49.721482000923089
H      49.529844700229539     50.167682147747087     50.225993575731195
H      50.042052287989733     50.676586348037972     49.572350112022576
H      49.693686425467000     49.410355340051453     50.341989354978075
H      50.299019864189461     49.096342236818309     50.206121435463821
H      50.585560167204122     49.541579263411258     49.233972185807367
H      50.497077586710020     50.495910154159908     50.440655382855759
H      50.771294937449859     49.067105885103224     49.071779152399991
H      50.793316044976379     48.931945417498319     50.677833921490780
H      51.003345546078599     49.917457368483632     48.816097473543522
H      49.267465150093770     50.867631103880903     49.964773291438085
H      51.310234947405029     50.141160586125011     49.731418896605959
H      49.449233265756419     48.862248959028932     49.841150158923689
H      48.996650364679866     48.373384949482620     50.120500767400188
H      48.838459172044182     48.607874578771245     50.625619235752161
H      49.658520198385474     51.196251171562594     50.043174677573703
H      51.106852867484186     49.344548397826436     50.364103358553827
H      49.457519604358069     48.425701706330919     50.979509980551683
H      49.797732138589708     50.674224636862242     50.088965784640628
H      50.088656554965638     50.730369829932478     50.645987122482708
H      49.619055160364660     50.089638521482883     49.262366693445564
H      49.283942837228139     51.661187139727907     49.767580333967842
H      49.728020101770362     48.227984397813309     50.579300325768138
H      49.001565412481845     50.534187649825242     49.335617876141143
H      49.855315061260669     50.610761789135374     51.235768223653288
H      51.436682345666860     49.528720612256443     49.883445306063130
H      49.652082048422912     50.635661609194500     48.878768692704440
H      49.094844781388858     48.141781757730584     50.736032399935787
H      48.943784646683369     51.757212368786092     49.176842881507447
H      50.533140184872764     48.872825570682267     51.336430149568770
H      48.383656955639239     51.918835362911040     49.550866587100657
H      50.395549385460335     51.174429938346378     49.198350819081917
H      50.775585976209463     48.256853662917770     51.171251506798171
H      51.110568016900096     49.900513138532034     48.289267881248300
H      50.016509278474516     50.247337671744106     48.748441693104922
H      49.004868778590748     49.110085878456267     49.450866162404296
