38
lj38_benchmark
H      50.000000000000000     50.000000000000000     50.000000000000000
H      49.614905440663769     50.069447946111374     49.668965359339630
H      50.364409668170204     49.915790480645327     50.459015595860976
H      49.626557074107943     49.986541184992170     50.429912491380762
H      50.813425711838825     49.533687141478900     50.256443341303701
H      50.612942519425040     49.647254706464132     50.871891599136497
H      51.050579016230380     49.980901122713718     49.856838762282756
H      50.534803073194269     50.285544721852801     50.934512799174598
H      50.248874707989792     49.287888242096948     49.971117946008050
H      50.774319346939706     49.521598905403565     49.701950834616866
H      51.654724848990554     50.290362428559099     49.673325094743007
H      51.703793873368014     50.324257950823700     49.166102187277687
H      49.718019580905853     50.718269341531609     50.310508261845918
H      49.886190527701189     50.543339761264463     50.857122379046658
H      50.660821225993871     49.479407718722534     51.646351798573612
H      50.850834657258275     48.976268043251387     49.345225586324510
H      50.455563654496721     50.960914033517284     51.360069441449077
H      50.265841817622167     51.525242398627526     51.639022360725612
H      51.311225091878470     49.251409984305099     49.016753424930997
H      49.921847975769289     49.010113654775800     49.644102772027587
H      50.122969378155510     49.725586712603246     51.546432430732800
H      50.574436811928038     48.959960878227001     52.230954623313693
H      51.962142611060841     49.667796056516622     49.007124824154445
H      49.612382826289519     49.733652105226767     51.004890000844810
H      50.350618475473979     49.046294265680366     51.113079163503116
H      50.748276918290856     49.770135026368571     52.292705314254604
H      50.536605929335089     50.010938497974053     51.901921191772729
H      50.746438564644208     51.658045529729101     51.543716505941177
H      50.434320349103587     48.455385514846959     51.757314569151134
H      50.014692670801189     51.211371388108468     50.474621841463069
H      50.182457308375973     51.791639094966108     51.076321081037172
H      49.502982058018468     51.667911188316090     51.520266335514684
H      49.600647744851258     48.829344832961098     50.932210377128754
H      49.803903620316945     49.341483643334939     51.285304035456797
H      49.051498967126498     49.033313372654817     51.388860029722302
H      49.704066344099182     48.296133669997403     51.424996354825147
H      50.011788100218766     50.533674553172105     51.519292615438353
H      52.377866051896611     50.120229028971366     49.183854830193184
