38
lj38_benchmark
H      50.000000000000000     50.000000000000000     50.000000000000000
H      50.171349287359497     49.651800261514737     49.497249460315835
H      49.758723873560555     49.220658443003018     49.648944518251646
H      50.574528360806319     49.838009743039414     50.192218996909453
H      49.633391010653725     49.342095774648925     50.211622865426783
H      49.078985643108020     49.263220282475039     50.146389370018198
H      50.344545967531680     48.997140891094922     49.637112590259811
H      50.696930582589303     49.319025278737058     50.010631744043515
H      50.606680450794244     48.678387248389825     50.038492464420564
H      51.189279104883099     48.363762438867319     50.049059294100438
H      48.741187436900653     48.937972771218597     49.673738341951100
H      51.708931456928305     48.689683606019230     50.237532404757175
H      49.239965879828105     49.337518006167514     49.406827519172168
H      49.376765364902660     50.144790250405791     50.247840281326347
H      48.815750096144285     48.485032935080270     50.155478568198099
H      48.453011470457696     47.948383464131979     49.989307248297571
H      50.099466189269322     49.245209082931311     50.519651352780123
H      48.398369541299260     48.682052743997772     50.737194410126271
H      49.546677949704375     49.674427494561044     48.765159708117444
H      50.793783871561700     48.080048058453421     49.895998060068024
H      50.310853350708904     50.594156148982307     50.398529169404100
H      49.695366277949113     50.358009491477048     49.806390509712848
H      51.301989242559664     49.430761511985025     49.657285963468411
H      49.498927542738045     50.176635132612276     48.984518155256829
H      51.159346679604134     48.699888251145829     49.350134980775792
H      49.715387174985167     50.399609201324893     50.777034435479393
H      49.885945312380315     51.027062328335624     49.720417166146419
H      50.307444093134031     51.351494910899568     49.862991204784308
H      50.238863584359116     49.970059403977075     50.742779026857910
H      50.967443592380988     47.646086160861714     49.258760472341251
H      49.798769342646800     50.746260482784848     51.432381335144136
H      49.868863542626087     50.988173220208090     49.119602254677311
H      48.744478443436080     49.126582881000736     49.084226119381434
H      50.252413177791389     50.155587380610847     51.612028575695582
H      50.736991586469372     49.569026407940598     51.035036164115148
H      49.146159381950000     48.707389315547346     49.220902522103835
H      49.514573842729490     51.192193446621118     50.894481938191653
H      50.360408756843789     50.807146206167552     51.577962720231760
