38
lj38_benchmark
H      50.000000000000000     50.000000000000000     50.000000000000000
H      50.414113009629645     49.737320269162964     49.683278977870415
H      50.501377652088379     49.861191745914326     50.374768520168566
H      50.277256731163824     49.763875995853411     50.936795179779615
H      50.590404244457176     49.371220898653377     51.101773336460127
H      50.406861047639914     50.371326017708178     51.356469648432231
H      49.348162398380083     49.861295839105836     50.248968092877334
H      50.784634907185996     50.569207937478708     52.026066430811923
H      50.431736084826717     49.114368541496454     49.294173323403193
H      49.994161221053560     49.125246393331828     48.963633522568287
H      50.220868577074526     50.790603418971472     51.036594683395180
H      50.351093331698223     50.643700824457973     52.480702623526312
H      50.521979346323228     49.145580337729321     49.910484496416736
H      49.759166799139656     49.951895027150698     51.225465578757557
H      50.556077630071229     49.905556015835586     52.566585826607088
H      49.494124869125159     48.582203844873433     48.729982028573431
H      49.067428608076476     48.265086820606292     49.172196532914825
H      48.570084818810408     47.853786867428781     49.491359255005399
H      51.031093515649978     49.191256641198187     51.417119271915446
H      50.052615780852932     48.462895912236327     48.673528634424414
H      50.551391931532642     48.342559289353034     49.310805948264473
H      50.099162401643945     49.122548862652565     51.587458671464688
H      50.269295452540952     49.184969496039194     50.483767760293020
H      49.379429530429725     48.922128134317440     49.262814383484098
H      49.228448345293685     48.808441450967258     49.971411510337809
H      49.554715304853090     49.462046430927970     51.055379189642828
H      51.545146483168971     49.137951863265357     51.980735212930085
H      50.414789688124124     48.349046592601923     48.035748989148651
H      51.648420030405532     48.570308291820076     51.760153724474932
H      50.320972988505076     48.670795004703763     51.552074322792379
H      49.781315344034667     50.663795676404405     51.650264830027048
H      50.221245733607546     48.813235321129625     52.198774182372446
H      51.213469612891060     51.086080629752033     52.151144567926202
H      49.902526465247455     49.560866593637051     52.044337606853531
H      49.446063051453763     49.689965405645957     52.589654451523948
H      49.059430627351880     49.675795308487459     53.155774374560856
H      51.601196674420237     48.556851446864449     52.317434791675730
H      49.847256742835739     48.693400105776540     47.954324390781352
