38
lj38_benchmark
H      50.000000000000000     50.000000000000000     50.000000000000000
H      50.560543209480898     49.949684082452436     50.404860715979488
H      49.647136094239890     49.473660785463373     50.057440751758719
H      49.192093789154960     49.614879026954007     50.269400293972502
H      49.795687461727709     49.529273538945446     50.796086077418927
H      50.342518897210162     50.427763492789587     50.242344879984884
H      49.928160464089579     49.000703760329458     50.872624261708317
H      50.421159997801851     49.307863081937015     51.378779579134019
H      49.230736851279921     48.975779474427092     50.919994969464113
H      49.087193782386642     50.388488923411956     50.289293979138534
H      50.560185407937617     49.017030186132303     52.114528248765282
H      48.995304859896358     50.120322935795457     50.744401594530373
H      48.971225678768469     49.525657069470263     51.394859549198543
H      49.189305239420662     50.291030793102500     51.251405488476536
H      48.824684396383553     49.996085776971867     49.822352542703420
H      48.432956150170249     49.774010925229462     50.110287706521333
H      49.682437429115780     50.801223750986601     50.251178100996981
H      49.852942091378644     48.819752225063311     51.569469760523042
H      50.522761819352262     50.185530661056852     51.001230910694005
H      48.366297070672836     49.193816019059653     51.586338413832749
H      48.071822446997693     49.709383153962207     49.608125320045474
H      50.260624865305495     48.905586964909205     50.506707042165488
H      48.158179504962284     49.283985975841020     49.151360781613370
H      47.735788281869041     49.165506576540182     51.767261766377544
H      47.396207650067041     49.243742317366426     52.485980286711893
H      48.828678837245675     50.342691995315427     49.292743520920318
H      48.590849752779810     49.760558288901080     49.107393677462632
H      49.166260371816009     51.009599986969427     49.344255381966008
H      49.606406859906315     50.307645274305251     49.627705964784916
H      50.690148974239548     50.971084417820009     50.621261317607377
H      51.192949755046399     48.843379840295626     51.991825627694283
H      50.362956235860075     51.247804733681058     50.246169955022111
H      48.651248789561123     48.696074970862135     52.130229835329331
H      50.093363229716878     51.772457190361877     50.023889076107508
H      49.073477488851651     49.396006084532488     51.887205220181983
H      51.454548343373943     50.967900981955331     50.860808717473034
H      50.565161506949494     48.373231666879782     50.498940572399889
H      50.018143900311543     48.330276140084088     50.243385296139408
