38
lj38_benchmark
H      50.000000000000000     50.000000000000000     50.000000000000000
H      49.663917282525169     50.504472309607934     49.652980163742015
H      49.574440273673389     49.885078183812219     49.233608059544096
H      49.824333042879665     49.395085631806872     49.040754717942860
H      49.619875728894691     48.860501397657394     48.695899838906080
H      49.087030230077985     48.483140276573927     48.468500611858502
H      48.433254113566150     48.388887821799941     48.229019753075121
H      49.919604534536987     48.596448213458572     48.993112725312415
H      50.480236509620205     48.763390712481495     48.490456154482402
H      49.903291981421930     50.098799033276343     48.566011789041063
H      49.208028671073883     49.919601627862718     49.795299360846613
H      48.547197576183812     47.941591640031078     48.692098777976213
H      50.456045911965063     50.457152607553184     50.050279124929439
H      50.547481659913203     51.018308634014453     49.528720698659853
H      48.076233327244182     48.035787229199990     48.375896464735916
H      48.764310449556810     47.194823896099358     48.647027483600191
H      50.758533969286631     51.221297276104352     48.790420314417503
H      50.399901632239377     49.299390124094749     49.264382610616252
H      51.040028777673186     50.881124786151901     49.763656795841314
H      48.960902824502249     49.855449015036733     48.713406095638433
H      48.046239101468061     47.164115230013103     48.624644610090975
H      51.339047956755458     50.704676858551863     49.128548194405454
H      50.632739422925141     48.029553794007569     48.292559852904766
H      50.883338537177849     48.593625486480143     48.899487523374759
H      49.207702977672056     46.822433871881870     48.747288353946466
H      49.867284722432871     46.636665236911760     48.847554706185598
H      51.196465570260784     51.337265854967271     49.963287165193293
H      51.552381161622634     51.409642485161449     50.533544452352956
H      51.392521753109662     51.934690755785233     50.644659503699920
H      50.875288027908887     50.504319630250357     49.142512055504568
H      48.775152333875162     46.398686330088331     48.492894542613861
H      51.526986817314580     50.175046269838710     48.882840905075184
H      50.279427057271626     49.154380076749398     47.907289856653229
H      51.078762774111190     47.627275144599231     47.962609731522122
H      49.595419280582412     47.918699281139851     48.315559963057972
H      50.211932497757374     47.983579928968766     48.612593585346104
H      49.430524325732108     48.243092470833041     48.962596721835936
H      49.702615433480581     46.078016853872825     48.620400643439481
