38
lj38_benchmark
H      50.000000000000000     50.000000000000000     50.000000000000000
H      49.462679599451690     50.407257182858309     50.405610779866137
H      50.587880343433220     49.852047606895233     49.845628170715564
H      51.223063307881787     49.964984913548200     49.864036662716572
H      51.773438287009974     50.272042975698163     50.131706398567609
H      48.847176715818875     50.179323930393259     50.579330808940000
H      48.400330366307514     50.094282944829445     50.903737277114971
H      47.871486684325134     50.563534423007034     51.030943091219818
H      48.135494164629954     50.038927639161521     51.636891051428670
H      47.906019096144931     50.655902086320218     51.947454950929206
H      47.497614648329858     49.910403997914557     50.936540623776828
H      48.417640063916231     50.276519082463317     50.202953127284509
H      51.790161683151297     50.001593583582157     49.378834968482778
H      52.064189983620174     50.702157595957786     50.680757472233076
H      47.555640399964474     49.138093763252591     51.123809347571765
H      49.872900665313352     50.068763610454340     50.861850156116517
H      47.645631870596226     48.562422849851011     51.368273409511588
H      47.630312253907626     49.751536453296865     51.802459303219351
H      52.503169365341890     49.857274229794307     49.329212743064822
H      47.390268665569273     48.041016040050366     51.491468722779182
H      50.646912528863957     50.061705450229830     50.293094548531926
H      50.035636804018253     50.590535780820886     50.085996490582552
H      47.404006821395193     49.182044004467123     52.135166635923611
H      51.479960442925126     49.471872770406968     49.024042235730803
H      52.221406543618599     50.447375112900552     51.421891575390568
H      47.325685456355750     48.163387848637662     52.223990053413658
H      51.864737297022671     51.018693709719358     51.386290197761362
H      47.085342345889231     49.340210966264152     51.492222246425726
H      50.703447095337062     49.902580706778053     49.344771910616217
H      51.488285147167318     50.873026576158203     52.055026770240893
H      48.086599763972679     49.267553055561699     51.138180658800273
H      49.045593313644183     49.844939330156478     50.096980183096463
H      47.355097404605523     50.081639926938450     51.520148599735435
H      46.976201216856886     49.819676432134230     52.235078934263584
H      51.669300779604235     50.362693420324220     51.043981584244044
H      47.531724524734543     49.707737487543156     52.328923641171485
H      50.039748013855970     51.104435343044294     50.560399477460280
H      46.831569496062677     48.055987196779284     52.193196896340091
