38
lj38_benchmark
H      50.000000000000000     50.000000000000000     50.000000000000000
H      50.095682186935051     49.236936159862694     50.190518699747507
H      49.784373782878120     48.662771110010006     49.727859175111099
H      50.204127990787043     50.266465073224850     49.587245775980982
H      50.048835673455493     48.850029830040157     50.738308840821254
H      50.632741971005345     49.585819326523350     50.080193171118033
H      50.159364305492595     48.602614644780068     49.061464038015600
H      51.246892633350228     49.890388492283869     49.793340138808475
H      50.895766847613082     49.510721015660422     50.617990608636326
H      49.987549687064522     48.359306232921234     50.819845420008654
H      50.693820878994245     48.823342972419184     51.161605518110449
H      50.392874931906604     49.701476741971909     49.572296713085372
H      49.395695498396556     48.086678175687631     50.854789192739439
H      51.318456213399763     49.238743530498049     50.957413223279197
H      50.691334836202898     50.489591537739450     50.043419010098077
H      50.984111471546399     48.511048474445971     50.684499177231878
H      50.449589469799726     48.047071065347438     48.908618664111685
H      51.819579855869414     49.784329069932696     50.152768539181032
H      49.474618658218283     50.163676847107695     49.888747660808022
H      49.424633491160058     48.471977207652579     49.271524778179881
H      50.465798260357438     48.271571828024271     51.701815275176799
H      49.871556487715765     47.854829949276656     49.529725408402747
H      50.629216274145570     47.866156497966337     50.412770456918039
H      49.588836745594961     47.354687817657528     50.660496951938214
H      51.571034137036406     50.536110422951261     49.451501287857667
H      49.586262897312615     46.759082380229238     50.841643449602692
H      50.050155535334532     47.866806778690318     52.227327165638442
H      50.037472748996180     49.228099010702358     49.602570344489493
H      49.245042344177911     48.991116346525565     49.567526391532510
H      50.551264284787180     48.474139641476214     48.298477669875673
H      50.067123826544893     48.489767086887355     48.071673905529543
H      50.134718355489142     48.217192611778003     52.830063246873806
H      50.878849110978351     47.935836366569532     48.266744379326262
H      51.218518683227906     48.008368689265481     51.746082448156066
H      50.192939869439499     48.824718019034343     47.555196869558237
H      51.569827378001882     49.160386659126267     51.503300125508723
H      49.119104750291420     50.088517114126489     50.561819947246981
H      51.380352863391998     47.809930972455916     51.086432820999647
