38
lj38_benchmark
H      50.000000000000000     50.000000000000000     50.000000000000000
H      49.402706651019280     49.903876360123242     50.433869436177908
H      49.791996150149927     49.936801915821214     51.019072420509517
H      49.815509962084512     49.545580491452768     50.257405657371471
H      50.030893278037809     50.712341741955036     49.999608921838316
H      49.663641724323696     50.797455173428510     50.331609752388822
H      49.851808488831885     51.543106362429235     50.363766412911048
H      49.358746535602997     51.722954983124794     50.860350820657878
H      50.036289271009075     49.705675218047006     51.675934119824902
H      49.317815122926909     51.299434459068621     51.472684085976240
H      48.897300718301729     50.959275068015373     50.346528708961998
H      49.601059899509309     49.385947282211013     52.219548160931154
H      50.660455893635948     50.804248572226477     49.739401670221831
H      50.229068201961489     49.380852891702382     50.018792165255114
H      49.985416620439544     49.259017397562388     51.188260233634189
H      49.967925831141486     51.343305468399890     51.022941089582304
H      48.899415266504484     49.370636869036510     50.433979667386694
H      48.800744992663333     50.320399350949629     49.980702391716640
H      50.457195635829898     51.749430880812689     50.886971103502191
H      49.747582908659282     49.227426883125467     50.643422657273092
H      48.900403475110480     49.867271716750949     50.811549673681363
H      49.752736124994399     51.949517235370642     51.373293585828947
H      49.875320357460247     48.903770447687322     49.845640029014405
H      48.882773409761199     51.704183642729262     51.117540415891852
H      50.229390776084010     50.047755398422680     49.256693655177891
H      49.974975607888368     51.978240912670039     49.738362939891196
H      49.389900535928838     52.332151814273978     50.450122044918544
H      51.145658476411427     51.823484289941057     50.966378189569113
H      49.008368249600728     49.819439040484660     52.396777888291339
H      49.814735215629547     52.670635639002086     50.121725598234427
H      48.531813016017985     50.888293322675736     49.534989254063760
H      48.904590839335135     52.587120078411765     50.295211148248370
H      49.226256779885340     52.451945210464594     49.744119848559741
H      49.642773622811049     48.560410377577220     50.487352610747898
H      49.840597812028740     47.848242641918858     50.719921127481392
H      49.607868412798481     52.250090424767663     49.269038712824262
H      48.362470868666875     51.374574517421991     49.539924422459684
H      48.900563476145628     49.553668325371632     51.401544906851925
