38
lj38_benchmark
H      50.000000000000000     50.000000000000000     50.000000000000000
H      49.375669119569764     50.275550127648607     49.788745938895602
H      50.336445654435735     50.020188231016178     50.366511606330086
H      49.769974990690166     49.663544292236452     50.443037154549657
H      49.326624571563734     49.513171703220209     49.711871284069794
H      49.399997888818987     50.529933503849200     50.530580271905961
H      49.218669992744537     48.985409264250677     50.033150742722455
H      48.522892357311868     49.019197991085363     49.724128519774951
H      49.016729170326691     48.309202655574047     50.359210875067333
H      49.077279568362037     50.126257607898339     50.400798534137046
H      50.824624936457340     50.648975408136295     50.383251623141099
H      48.292966196293378     48.278674303361932     50.102980911223952
H      48.634879285296378     50.390574614844709     50.563176512950974
H      48.452929632123727     49.916711870210712     50.184554219678112
H      49.083288823111786     49.215080215547204     49.316357192716879
H      48.665343317554949     50.491917947761124     49.789800581249153
H      48.583442116479993     49.148984698587313     48.880178408213830
H      49.421041241393922     48.580642789227753     49.556245509607749
H      48.991406291934467     48.651344831244110     48.435836357149043
H      50.642979039560089     49.649171968169128     49.860021043241147
H      49.764548042742319     50.678392540716317     51.164786712816770
H      47.939240971773273     47.883072560543951     50.655192549719764
H      49.587809619994914     48.919008066504624     48.565911934285097
H      48.498136254561651     49.591811388381238     49.446592235082662
H      50.593295990212575     50.157676546486641     50.912665761450967
H      47.271161478931553     47.938596665776814     51.080962582182337
H      48.066796833277451     49.963451159669034     49.398719593971052
H      49.619616017352854     48.015032066339138     50.769772431636419
H      48.468865075659494     48.305649056939316     50.693620981472542
H      49.755484692491905     47.660122014065578     51.301733530033708
H      47.229525618619682     47.276582965044156     50.734064459664467
H      49.928580802024868     48.895864336019095     49.247958630414416
H      48.799730544204039     48.050527661917606     47.993378318732319
H      48.834057492994013     50.333518627631562     49.185781295081213
H      50.409141309748328     47.509843471485311     51.736875624579660
H      46.918738088448052     48.144949524179289     51.454392792773383
H      48.099451115085216     49.281006270398571     50.220080361224966
H      51.212259828358867     51.088246381900454     50.238912451681045
