38
lj38_benchmark
H      50.000000000000000     50.000000000000000     50.000000000000000
H      50.714832688576458     49.782385028622592     49.974166734705960
H      49.463577451214327     49.981956011387815     49.778873100155892
H      51.258637962531296     49.739141131141551     50.476641709499447
H      49.641898256367540     50.508678347367173     50.433261565523473
H      51.148924254864752     49.149877341859131     49.829089086513996
H      51.686199710496041     48.788266028228819     50.170813753925174
H      49.757145001521160     50.389049192750768     49.306302065870433
H      51.613005837585497     50.111308588250672     50.762943415797544
H      49.033979391371560     49.895858831408106     49.455521347396449
H      49.048622198036469     49.370176156351377     49.148942117072579
H      51.779812628133712     50.629199089452584     50.609137318079483
H      51.263710492153905     49.947022060385947     51.417810419549554
H      51.218082660647667     48.753060952501976     50.690751200349361
H      48.771418489987120     49.116307344178807     48.727995463698861
H      51.441842956682024     49.244288156186229     49.352713868164614
H      49.733339883227195     49.816307525009087     48.963063008084553
H      49.786063434187732     49.371523638189885     49.553949489459711
H      51.803734977277358     51.339813875102500     50.398398508311288
H      49.719047014447860     50.516595163039547     48.816359239581224
H      48.398543376436841     49.868808385667400     49.563806776636177
H      49.667427563385651     50.269810736557417     50.967754932503325
H      51.441162162141012     51.390660832101084     51.068577029633744
H      51.353153786110362     48.974427930141900     48.752710097511148
H      51.955536518187301     50.993917668360730     51.219428640663047
H      49.581743112954598     49.819110420224334     50.629310493703734
H      51.247464019840159     49.365237908432682     51.042764864863777
H      50.149643188772629     49.224447679120246     48.727136394669039
H      49.873104599543154     48.863923646398661     49.516527846023557
H      50.340574533465798     48.759405096534948     49.851723616242609
H      51.350318337652780     48.510460500998569     49.411620439835893
H      49.929054983151111     50.947057810863313     48.449860680067083
H      50.871957084011491     48.217700402332369     49.591672914553364
H      51.340245606666500     49.624967304935588     49.877587689960230
H      47.754108369675876     49.874981173049967     49.864281342789631
H      51.995096965785720     50.917686083093450     49.973145615893067
H      50.056092379690426     48.877321453331895     48.379128616094974
H      50.676428671412793     50.668592284737400     48.521293727016726
