38
lj38_benchmark
H      50.000000000000000     50.000000000000000     50.000000000000000
H      50.188568669933375     49.550602477154179     49.899877975000479
H      50.777114931378186     49.972249545913151     49.745166556961337
H      50.230665513598375     48.945897366641269     50.428084608511789
H      49.736963756823435     49.683078095482372     50.468699683759098
H      50.041749392383764     49.022960360637811     51.056596042544982
H      50.499472180712644     49.162798685717924     51.476537546848633
H      49.979246946842828     49.702999290214017     51.222820225694775
H      49.586651237002641     49.801413880739219     49.555095245067776
H      50.903044451420804     50.621524861524478     50.014365739973769
H      50.508856007657108     50.922316705853383     50.328030417642012
H      49.172866766842645     49.425621522588493     50.297410977927953
H      50.457239003036733     48.599208536829941     51.083351918893179
H      50.429216452370873     50.200196889930901     51.398806379402323
H      50.945400957578464     49.577500392108128     49.292035095870311
H      48.976674909394411     49.789935019551486     49.567377629376082
H      51.073246591233143     50.843991397637737     50.827365410510005
H      48.914826555044463     49.303447607070851     51.018877060959412
H      50.955252219372369     49.099380707723519     50.390219911349497
H      51.437236564498015     49.221361408460368     50.027153000715963
H      51.827929173028721     50.772113648483163     50.613069126802927
H      50.974436772613238     50.088802590903860     49.098672890479357
H      51.569713069164386     48.904046986530275     50.582120175128736
H      51.915691270238447     48.584250424647301     50.321393761812139
H      51.912556539595123     48.085972248690950     50.790656583720995
H      51.606034693843235     47.449799851249487     50.566680096254991
H      52.237946597995311     48.681244138691078     50.739260264852199
H      48.204286985057948     49.782617695545120     49.516894361635401
H      50.397608782018480     50.685761823394500     51.027697262707051
H      50.491810103524024     49.400643437793974     48.736845677240929
H      52.349062450471251     49.383565723852328     50.439946057772303
H      49.301209605366836     50.025684692975602     49.085780610520438
H      50.281473870120188     51.351942514323767     50.737609666912739
H      51.354550206975745     48.337039459005965     50.216021562824722
H      51.441951081349970     50.290025857610672     51.037994937539025
H      48.549383884792235     49.867711894264701     48.829359643122430
H      52.015911753136542     50.167069923477918     51.243043522191677
H      51.332610139778922     50.987299187366759     51.496241545059661
