38
lj38_benchmark
H      50.000000000000000     50.000000000000000     50.000000000000000
H      50.452088762569524     50.084991074059822     50.390386030683260
H      50.108918675978430     49.803135277324778     49.525719441995506
H      50.231250932601398     50.642941348932702     50.067492372753549
H      49.791690150074977     50.420577368396522     49.243904113157811
H      49.803724776331386     49.810911571123853     50.685770239403894
H      49.713395206288112     49.398973980444417     49.690307161116266
H      50.154070200549903     49.155076437274928     49.896374573820303
H      49.653960694862576     50.844830379036836     50.339196558105343
H      49.774481563847175     48.833423545087811     50.381733838070105
H      49.730714995305497     48.089957253777769     50.585698257096944
H      49.896867627715672     47.529188116932481     50.126921915256332
H      49.505671556232677     48.206868297636170     50.121612598731637
H      50.450471373185565     49.993474563183476     49.197933367871777
H      49.242134099984348     48.789795703570107     49.812557019827416
H      50.314146158650338     48.607767283590455     49.823903691435980
H      50.896462415751628     49.948065512970977     50.639062407595354
H      50.836500178144718     50.535932269986105     49.259486957956419
H      49.293410277887546     50.025450629022558     49.067545470047222
H      49.266589723240955     51.090995005663032     50.831695863296638
H      50.360219354627894     49.457239479721373     50.707145650807327
H      50.037308451458436     50.152325344934475     48.599455244099708
H      50.178152612467912     51.345004037694721     50.183130783426456
H      50.311656624698287     49.988936476006600     51.006318756366738
H      51.543071931393698     50.541415372146091     49.191259954738364
H      50.888497993304881     50.954479088506531     50.407757324356332
H      50.713204705069437     48.076562841557994     50.218792069012956
H      51.117622898414496     50.143602570902942     50.160677849050479
H      49.692880559316983     47.137627315601584     49.584792915268963
H      51.032341130127826     49.229394584054774     50.420529153259380
H      50.661985360179024     49.809928574016944     48.480812951602417
H      49.822956620011936     49.483585820877195     50.222788228914602
H      50.248270493054733     49.500222214600718     51.475815022301674
H      50.776956197040192     51.608493556702904     49.775521080442957
H      49.426497030775430     49.483325464626965     50.948049022637939
H      50.713125470502632     49.617544513210397     49.441935463574346
H      49.804856534778509     50.675610535615661     48.405169282470624
H      50.997192930812531     50.269529158687220     48.790586858493342
