38
lj38_benchmark
H      50.000000000000000     50.000000000000000     50.000000000000000
H      49.391935529189240     50.012395994198918     50.428367282836547
H      50.337380527713506     49.791681454127300     50.517901449838007
H      49.589703169320899     49.470727377148371     49.874513368635313
H      49.841686713403874     49.923845708185077     49.246708063388517
H      49.991028337097546     50.582364190231218     49.232370888767008
H      49.375303749995432     49.816774951769432     48.748955143704968
H      49.309395170156456     49.529707890853423     50.744603067239289
H      50.140837381435908     49.255373759673724     49.242427594076986
H      49.969315310013975     50.092444773839233     51.023137392914961
H      50.472644011069825     49.025970531642386     50.443602606596301
H      48.873215282400324     49.820318589358394     48.904872391568901
H      50.183901779422818     50.209550575107293     48.735491072231120
H      50.006039188335436     51.184351934906296     49.078605715097012
H      49.810056083340022     50.309539147927211     48.107759195141931
H      49.559938536715634     50.911329086431280     48.052023023759624
H      49.904935390163558     51.794337632130720     49.281890677325656
H      48.205634415092078     49.800274796276966     48.669699373882423
H      48.984398171009637     49.841631952287806     48.331825147933998
H      50.489827190250381     52.039347459262949     48.866185437918183
H      49.954997286026988     50.910591285905760     47.646668306322141
H      49.514352302590495     49.459294746365146     49.238441041154381
H      50.400577444576030     49.257582194398189     49.790817716347959
H      50.180772151587782     49.355561530271572     50.865426359167373
H      49.820609347252237     49.830002079800799     47.846051713007171
H      50.291584842309625     50.019138481020725     47.411784374239332
H      50.740347527833300     50.685407234549047     48.672563962361572
H      48.629913957678284     49.232842699895990     51.027817740591900
H      49.558113586364328     50.147408787767198     51.586395777969344
H      49.483554629311925     49.401548864773297     51.822039111457180
H      48.928064515077139     50.143705948134624     51.640830875192179
H      48.855679750874884     49.789225249623726     47.817924749455024
H      49.870543462231069     50.683315444879440     51.230729060354236
H      50.083587504201851     49.257345067002404     48.630002114415575
H      48.982305359650368     49.288215782471866     48.764644992778109
H      48.868855250305280     49.353495149843134     52.209424759267506
H      49.985800286691095     51.870426056713676     48.495083925629004
H      48.594677546244363     49.177938414509995     47.547950539376416
