38
lj38_benchmark
H      50.000000000000000     50.000000000000000     50.000000000000000
H      50.345377012979966     49.553965324200561     50.368881189178346
H      50.021100852605173     50.281569919176476     49.395372761714746
H      50.617824170834510     50.125886534795811     49.851539709230750
H      49.472268722601797     49.985392788060949     49.158392648345142
H      50.246114714033858     49.076125551284953     49.842944429091098
H      50.771741463056088     48.959086903428684     49.299134737342570
H      49.394330588022726     50.422669819672734     48.695949614170019
H      48.809672212341766     49.897486973410317     49.008678176468052
H      49.525883598917815     49.330379650584810     49.466754591647131
H      51.217323536228129     48.975614428681247     49.555932529641254
H      50.100433550064551     48.536448608475133     49.707592469118566
H      48.659881053806281     50.539136814698537     48.550226198204868
H      50.949385545766319     48.302459458996061     49.134370796294562
H      50.371523910789946     49.921136735096454     50.913251124352087
H      50.012049802901466     48.134655188690395     50.234313547461028
H      48.276638646551277     49.578235036288341     48.639841653665236
H      49.832423875299078     49.598179473883107     48.832456774674306
H      49.883991150975902     47.741730141684513     50.828814750261131
H      48.401916213613703     50.007111240867232     48.398261885355502
H      49.870014886068716     48.400291298595981     51.119498030956777
H      50.051718149241289     49.044475072888744     51.389035445241888
H      50.184630674087664     49.785597059648559     49.592544653526566
H      49.816375315580849     48.622247439770703     51.823757770680146
H      49.261791377355927     49.138424060029074     48.548056641884159
H      50.765817717698525     49.612096004289356     50.763892769424409
H      50.145104889797125     47.421951512139550     50.145792076238052
H      50.155857522473703     49.260491941688315     49.212041494362012
H      50.955581865062285     48.801130451568326     50.127099744244958
H      48.992784954365248     49.641665949900101     48.077650252233340
H      49.677448632472249     49.263046287963178     50.560028995568160
H      50.773326190904804     50.375204889075114     50.803701017551298
H      48.064760242911817     50.379627510192407     48.626783202368088
H      47.699372324913305     49.383089775735030     48.449758109117759
H      50.586894878365342     47.298164526147346     49.828439430533322
H      51.771562192443383     48.968315210087709     49.586901243092470
H      50.382862248486447     48.898346512977618     52.024006049553044
H      48.709625542071933     49.301220488564695     49.121804206895241
