38
lj38_benchmark
H      50.000000000000000     50.000000000000000     50.000000000000000
H      49.912562976693778     49.439444076202349     49.898936062851824
H      50.226619551513195     49.118678589490365     49.641097716871641
H      50.236115042945755     49.914580291514667     49.474897520249435
H      49.933654392475823     50.596253452228872     49.355281615195651
H      50.420475557932406     49.076559543910626     50.268544344233113
H      50.241896171743200     50.385762847721239     50.354909982047275
H      49.433566655538925     50.816728254457345     49.764606728538546
H      50.659405101452585     48.492342152483054     49.959730611915518
H      50.156810197986324     50.869768582435391     48.937193453108968
H      49.501975711026034     50.286639698641622     49.136305502081129
H      49.674566283165738     49.900746835362305     48.809298082854021
H      49.584111522103917     49.167739544497238     50.459932783196358
H      50.747376465014625     50.248594686769536     49.862662018213811
H      50.021366181752995     51.534197419111557     48.681169558684473
H      49.494796944233279     50.203896582249953     50.360517045469471
H      50.683161871869409     48.193040202630783     49.254438941875641
H      50.801969601473949     49.632764632377622     50.604265068580133
H      49.642654078734637     50.809210780200985     50.283085516231395
H      49.202102648643383     49.253246603263420     48.798838398367430
H      51.128192870697610     48.712883400072272     50.445451421986355
H      48.960445643133767     51.053001816775868     49.439333999693332
H      50.141885059547008     48.074124475782142     50.007622718924779
H      48.862185648746255     50.411186450597761     49.006868521649686
H      48.977466994785992     51.609125939854486     49.271769078970543
H      50.502141846915137     47.485688908019689     49.838985812186316
H      49.306872384574099     48.904575176894795     49.400366675725977
H      51.515158248582559     48.592635119923841     51.093366985749199
H      50.222358799111845     52.026161620613244     49.113684282585751
H      48.494197086250090     51.429126012850652     48.907301388513488
H      48.437576387464127     49.779886488569026     48.782655071547943
H      50.767734186158705     50.618957895631148     50.709643985751029
H      47.673900438707221     49.699548575135751     48.579458278801255
H      49.765172599553900     52.066605304928750     48.516792782232201
H      48.316483319898239     51.686183224201756     48.484542294388788
H      50.617749983403876     49.715485825856746     49.855790468914471
H      51.075728961331372     49.238582610703538     49.688722589286286
H      49.306006580738227     50.635406605558764     50.854985574640445
