38
lj38_benchmark
H      50.000000000000000     50.000000000000000     50.000000000000000
H      50.173122587129434     49.362278094905861     50.374005975589256
H      50.103243920132904     50.428248049203184     50.409533240919949
H      49.769678406176581     48.829929950368424     50.584054118849693
H      49.334448307185355     50.146349403402972     50.307425758426099
H      49.928703823210562     50.041491692584891     49.238318826708422
H      50.129393838824889     49.283068099258003     51.125060435251818
H      50.529140263687736     48.965228453608958     50.017705980387582
H      50.587425576233464     49.213074409483383     50.793478257372279
H      49.204079703645519     48.318727431303273     50.326119232828766
H      50.099464230925761     50.931850794041871     50.560807771464205
H      49.750505883432126     48.099415377824883     50.067289540680882
H      49.504839036583974     49.595543206879569     49.890163223178760
H      49.800120203259048     49.053834037757959     49.798408299353106
H      48.838699054550808     49.378918072820746     49.537212888663035
H      49.754072286290736     50.021297921641533     48.697746131753163
H      49.154709780847149     50.252204386110179     49.610547950435716
H      50.597939902716213     49.996293947881931     50.081804699427863
H      49.445226751876838     47.804361696747456     49.589825631543931
H      49.379876156738632     48.621824514408630     49.876180614540623
H      49.362464918847138     48.693544212505898     50.937147757491530
H      49.202903989091311     47.683519426045720     50.809634672246588
H      49.028692768382008     48.425136673789048     49.409292148205516
H      49.993749221512978     47.527979673552430     50.126321445133627
H      49.130711499516501     50.731392157909504     49.964756257189748
H      48.841867389657551     47.616642735851705     49.173679651537974
H      50.014061546326523     49.811780139998454     50.631978632001641
H      49.736887559783014     49.998612820831895     48.113379204131512
H      49.890110048093234     50.623934967554327     49.675716186760326
H      50.236438919204382     47.233136612590940     49.484991641609703
H      48.473151837617223     50.282082727478752     49.269937628061520
H      49.824740512340469     49.348520089875940     48.773032540999054
H      49.686894280954405     49.053161266254911     51.652185203223944
H      48.168238696676575     47.728643107670969     49.573867460322980
H      50.979870346271085     48.478739314730397     49.838983848643352
H      50.577616223536992     50.122612084120192     48.918339559774687
H      50.235653588942270     51.047431827345655     49.142768257021302
H      49.082409357215553     49.326001605585539     48.802253054827389
