38
lj38_benchmark
H      50.000000000000000     50.000000000000000     50.000000000000000
H      50.059523006600649     50.514610822974419     50.002019156351707
H      49.962041533914480     50.134020103961952     49.335364694856018
H      50.321621957466064     50.907245216022865     50.392068695003580
H      49.237386563213093     49.991752825766518     49.827671058659980
H      50.631794947775532     50.417847491143824     49.878041251962657
H      51.098164271785066     50.425672748949687     50.454110861701224
H      51.059699762280815     49.778982027398548     49.822014490837169
H      48.873675661696758     49.521981785281575     49.566555467840054
H      50.638732805398774     50.159629095135045     49.173581051797910
H      49.825633750773619     49.519895198725315     50.100990802965697
H      50.113906554158000     51.490486565429578     49.890102471372408
H      50.117887301594884     51.120475110981729     49.245184622257533
H      49.623362273145574     51.072438173666072     49.404941705362241
H      50.171038558704282     50.612986984289002     49.413897974486282
H      49.589972465082226     49.873854887378322     48.853220323368603
H      49.763838890195380     51.215468821072335     50.214015924923267
H      49.296083768153835     51.757750513007288     50.343135309111425
H      50.830812637965479     50.851478736515951     49.573866707032664
H      48.793254802510951     49.098312142095523     49.156710196218270
H      48.513375762377393     49.430139940464521     48.683444731996538
H      48.273212213801294     48.702546107241183     49.220391006287251
H      51.537079657567489     50.424369338644802     50.961634340350230
H      49.739525327379866     51.210033559751132     48.753694778812871
H      48.229770023250275     49.830340161662988     48.334333634827956
H      51.440227081210764     50.795301032071514     49.215869499162281
H      48.570819557521418     48.239068434464052     48.908024601956889
H      49.190161457610870     50.156299233436684     48.959290508406063
H      49.760374082755312     49.728771446938310     48.373588158677670
H      48.310636146241613     48.192152818563613     48.283688054787902
H      50.449497659914499     49.293253495508623     49.638958473766252
H      51.336926738468904     51.507779058263857     49.150921470301526
H      48.694296297924765     50.108774791110228     49.586382642192007
H      49.072645195091788     49.206012889486402     50.202396222496880
H      52.188650049739913     50.802579139261063     50.988247823975037
H      49.790808540524559     49.839177755485323     47.839207892755212
H      49.975509964237361     50.399894111028281     48.061932895872893
H      48.082910485794947     50.396469576493047     47.853039464468637
