38
lj38_benchmark
H      50.000000000000000     50.000000000000000     50.000000000000000
H      50.459700881950276     50.285827791621934     49.403253656242519
H      50.329852152409543     50.453942100001321     48.765019325165305
H      49.402112270075818     49.913755582914767     49.570625327435685
H      50.051300723841891     50.918224428622068     48.245348730579323
H      48.930174133954985     49.373617682412991     49.372228492082385
H      50.417981550868461     50.802545740522056     49.449920469406457
H      50.962655583273246     50.071536930549399     49.860565762529617
H      50.794133158603081     50.120594742404784     48.335837978874792
H      49.588219156402928     51.444177460999960     48.063354905031744
H      50.509360826619556     49.721554825668449     48.163834069585903
H      50.685852272456231     50.952434861594867     47.914455113172927
H      48.752907723688310     49.003440661328582     48.830800162471050
H      51.589315861271402     50.446847840767049     49.589277622306319
H      51.185676998263752     50.802182681137822     49.838306611096286
H      49.045411676039237     49.050692107262698     50.017456371412678
H      49.814114597405066     49.081497706680025     50.035272652871036
H      48.823274619445776     49.028328928845347     48.184945793590899
H      51.379138378497700     49.680883396361700     50.359264517479680
H      50.277092538117614     49.484455577401619     48.702015448269997
H      52.010584157418478     50.149472617779558     50.457076801697895
H      51.552195774652333     51.255979266632195     49.594468460074509
H      51.501170717700639     49.146018883581156     50.335779232429132
H      50.796573900969321     51.471033201355382     49.449431847559474
H      49.831814388072694     49.748398602123984     48.762377867030061
H      50.929363975590306     49.394024828690981     47.959315856747629
H      50.306115576251983     51.137230086418235     47.454139816818646
H      51.016149113169085     50.935746371510071     50.465713620833355
H      49.352980424413772     48.621570363422961     49.071882067163436
H      51.550253103336658     51.862502188903406     49.930724612254132
H      50.442201539556088     49.837103372858046     47.453316954623176
H      48.689220701480956     48.585722780699214     50.149309589054155
H      50.893762562018132     49.670817529185669     49.469085441420880
H      50.972434898777742     48.862724113314819     50.138644680141041
H      49.335649189191358     49.291695334478909     50.610912911547040
H      49.449888891126662     49.382424630199019     48.240861848597127
H      48.755481769396333     49.306922647214108     50.469976772273583
H      49.311751445800901     51.338872227137728     47.370703740728572
