38
lj38_benchmark
H      50.000000000000000     50.000000000000000     50.000000000000000
H      49.578852000007032     49.516494412688630     49.978112310364807
H      49.890684995990831     49.131610302140253     50.282366446918545
H      49.463639947139853     50.266721571511269     49.888742295735440
H      49.959091037627701     49.528071087862685     49.640480673898949
H      49.173278145988675     48.868887810754714     50.175904316695110
H      50.434872287523071     49.825891570956045     50.512841258592275
H      49.100284288715677     48.251010175110466     50.589869883808440
H      50.570621542711805     50.486360321846369     50.878430792186279
H      49.653796900164643     48.608647140092970     50.340788863967859
H      50.447465948672082     49.559871165522466     51.187892736445228
H      50.152554677904831     48.470200933512892     49.841555412066356
H      50.612570626267797     50.018484339789040     51.451380628320948
H      51.146823672677868     50.269968097503721     50.664609864336256
H      49.470401458955443     50.359221255331114     49.217696845347859
H      51.776236937506816     50.648541408113836     50.467125218212232
H      50.320692586579725     49.083991318036212     49.584451474249967
H      51.541675039712679     50.847618522736347     49.960958808312036
H      49.822574885218593     48.905086435883327     49.257375056304006
H      48.818323450185524     49.489595369427640     50.005174598878313
H      48.748023656912771     50.283871737925892     48.979469953434418
H      49.742965996928184     48.496230368301532     48.718226057503912
H      49.203613780064643     49.495767227855112     50.663680695579956
H      48.919245341137113     50.081475422512476     50.278931331891009
H      49.454116228539483     49.746385217615121     48.848146812373649
H      49.761120633085675     47.887338388294431     50.721226028048051
H      50.865971295438612     49.031822199059675     51.064148791131160
H      50.918080396130584     51.194120945935296     50.290929441241438
H      50.064800517172003     48.062338248061032     51.161609731929900
H      51.331220550248659     51.621872993782837     50.730707305910649
H      49.647862887737318     47.283449736629322     51.101374180025296
H      50.023910712263913     49.501160145589139     48.765804954622148
H      49.142676054951430     47.229851149693587     51.188808956381166
H      49.174291077228709     50.885538908026327     50.007828741418379
H      48.954491786637860     49.832469762720407     51.249524895757759
H      51.082775263588154     50.210269981370992     50.165490149158863
H      51.449584597798506     50.441890750239921     51.176001476553196
H      49.418828009572472     48.988872387179583     50.939868191043502
