38
lj38_benchmark
H      50.000000000000000     50.000000000000000     50.000000000000000
H      50.094775366725713     50.088898974634837     49.312769895665674
H      49.445317049871278     49.793709000827391     49.209265587695150
H      49.340715391433079     50.346604406674672     49.143408823653850
H      50.230543457393864     50.820689074034561     49.107797901633930
H      50.266939108347138     49.455502569904269     49.827127073244206
H      49.616275272627639     49.295737094473992     49.413568768859015
H      50.821885467364339     49.686563754045515     49.735748341395990
H      49.509941814926265     49.806191882594192     50.338761415268571
H      50.421607099761033     50.897096876290092     49.612583409748432
H      50.964674420547944     51.186634413273360     50.125956054543693
H      49.120858059516145     50.718186873594050     49.474458553697190
H      50.450360076789579     50.909138083971385     50.299035401188505
H      51.386332685195583     51.669555156522790     50.541813074782802
H      50.847591077965816     49.437970909773838     50.489828931208777
H      51.502929983480904     49.695047605170465     50.811312389898852
H      50.801512162958268     49.157353721690484     49.633511665429523
H      50.285450872942818     49.309161348060776     48.981439194221956
H      51.614084497502070     52.005313662336206     51.230351854085733
H      49.849277282698196     50.672159767789850     50.336816236876501
H      49.503660166804679     49.972965158317955     48.591159286766604
H      51.848697835288782     49.510710405454290     50.202034934067768
H      51.422296028467436     49.472735142781389     49.392986454948044
H      50.590051982525679     51.635197156137075     49.766218468870527
H      51.865125189542432     50.011805030446460     49.217741516574918
H      49.503954781422188     51.060055407865612     50.881391468156330
H      51.023773653878045     51.936692928820776     49.832319816406155
H      49.893854390299936     50.673542280928558     51.435632854047860
H      50.373527007197133     51.060546066859899     48.486512165991101
H      50.064000439937523     49.687174155475439     50.537194547144239
H      48.736969961382442     49.875691001422105     49.405702699657823
H      49.654027825148560     49.178387660980938     50.544458829668251
H      48.698064104741562     49.800721047267558     50.073876836467058
H      50.608782741073213     51.608218506930655     47.988275245072593
H      51.336059347879576     51.511313503142816     51.160592612559938
H      49.885576827408862     48.519105393980723     50.202847848239720
H      52.441873972252509     49.600373776028974     50.062666306747019
H      51.162275102978136     50.575041486022904     50.148359263079612
