38
lj38_benchmark
H      50.000000000000000     50.000000000000000     50.000000000000000
H      50.199132604226641     49.557706183493046     50.544984332346772
H      49.647038285416230     49.921765148645903     50.768004475764037
H      50.633370308434735     50.169691764277097     50.140198718232590
H      50.634974562187942     49.316404122189098     50.198671234611929
H      50.872681969082038     48.762722476049454     49.670498899817453
H      50.852265720912982     48.761156196550701     50.278351562124818
H      50.435133290234141     50.069013629479336     49.671831194285168
H      49.163382671158885     50.108834612647016     50.342756730162847
H      50.832696950005896     50.624812059085990     49.378503453146067
H      50.503150907514630     48.444636106002143     49.986495364196550
H      50.583936396207910     51.201575962201737     49.001242591210676
H      50.452778429389816     50.536181078369488     48.632327469305274
H      50.203523465524945     49.806528688741480     48.741254388402503
H      51.128659287396871     49.752367147793692     50.175698222635219
H      50.638968660004743     49.167145491259070     48.873823329560658
H      49.727033561478684     49.666734304603516     49.400471046279478
H      49.456665264258660     50.553198478029017     51.179566116255174
H      49.781301760220529     49.351017323223502     50.205279005329125
H      50.469044906036551     50.376020314871660     48.002487280157432
H      49.772962387988485     49.064882891002824     49.419629386448683
H      50.489384316834901     51.079954128160040     47.639868459732362
H      50.209853333134646     49.199358517327553     51.027139591261346
H      49.563616215962185     50.517242628700522     50.633748938169440
H      50.284525943702192     50.400663458074924     47.315314734624160
H      49.992151779077915     50.586270046179578     51.635156949601331
H      50.650791172926162     49.660252612170268     49.273022637270437
H      51.291437635422419     50.123678289164516     49.543944782142809
H      50.696943289718220     51.426945371962425     48.085270856096933
H      51.431499251165185     48.586949318842890     49.376009421397697
H      51.070030594153053     50.422888207592607     47.942007375870986
H      49.114151792652287     49.837568488601121     49.537573564255375
H      51.331383785098197     49.577974998274108     49.746977284823629
H      49.842195842212654     50.014189866904637     48.303318525887171
H      48.947169966293721     49.096984382303901     49.708953575146047
H      49.948336389658813     49.211538217841209     48.633691677968883
H      50.600470999879754     49.892051820452131     46.901986758379806
H      51.290259757427627     50.436684823367159     47.238779461908784
