38
lj38_benchmark
H      50.000000000000000     50.000000000000000     50.000000000000000
H      50.119340003587467     50.456815285224479     49.676518677635947
H      49.826323631928524     49.309722187510658     49.735837817703150
H      49.477264491959552     49.989045260909315     50.244856130480258
H      49.827357543057452     50.625313188917907     49.306751563192556
H      50.452457176495486     50.765091581242977     49.893701754638592
H      49.405968776964471     49.135220492540100     49.384389182560625
H      49.083693144402652     49.322748378921659     50.260353377763494
H      51.042072402004116     51.117149176994054     49.535701184285443
H      48.944356942743397     48.965291179726485     49.767120155207976
H      48.843250761453312     48.676545775921888     50.446681230432837
H      50.303125782996617     51.280108239967852     50.449092365460693
H      50.405944202359272     51.307325081789394     51.054164117276770
H      50.823950711302565     51.506335422275910     51.311051094318557
H      49.562478347298232     48.759083058307120     50.139138240737473
H      49.328014783867779     49.707143491839140     49.097983891825940
H      49.945108530586090     51.849834214117990     50.933414953388635
H      49.815396488729363     49.056118280524714     50.565722574136821
H      48.311108813372115     49.448001428550953     49.833278526348295
H      50.300311348484826     49.444307742961044     50.339656507041688
H      48.346524542451803     49.282357152295319     50.420639452572075
H      51.640545351153456     51.364464996585610     49.605352208494310
H      48.495479068322766     49.717097917575273     51.059688648702178
H      50.115403314425564     48.778800113966810     50.057388045941096
H      51.670114753332690     50.841244604688200     49.765415943281681
H      51.085909829675323     51.660496291618585     50.661494988637656
H      48.327973750659083     49.065436308506676     51.016940244079635
H      51.212304110616472     51.111494168080661     51.529756164671397
H      48.830582892871917     49.318810863795761     51.059833169088691
H      50.832178899851044     48.690377338714498     50.327796198819669
H      47.954060981390981     49.670877011666292     50.966822253504176
H      49.345196313202209     49.165453904535390     50.770145719785162
H      49.320667249836823     50.478224556186227     49.965438203886663
H      51.688824463647151     50.050978662643921     49.742860698237855
H      49.782408554561400     52.345390313714283     50.581730550269867
H      51.462414167186694     51.570764195435977     51.053673102298390
H      51.851294002618495     51.223173376494543     50.310531332553637
H      50.582151187561976     50.092693054444098     49.871644102930645
