38
lj38_benchmark
H      50.000000000000000     50.000000000000000     50.000000000000000
H      50.174520809442782     49.644301507100835     49.660741257172184
H      49.525170361154771     49.192787029034761     49.791390143371437
H      50.554292998251469     49.728696168674112     50.134586763322375
H      50.594664052171531     50.309442939467274     49.980833163414687
H      50.548504701549589     50.199288426436766     50.563079098282842
H      50.309061260418268     49.703762036156114     48.869638750159481
H      50.315982220320628     50.126345994280683     49.242426089655702
H      50.621493485613946     49.177080375013070     49.381070735915564
H      50.468243009802094     49.141084582567871     48.389114991568512
H      51.096220643541137     49.054441764357477     48.151447604841174
H      51.025216046373941     48.394119776366324     48.446874310568283
H      49.876874926084959     49.337837898231193     48.194956421652350
H      50.426456107363748     50.819539137418474     50.163785622958393
H      50.054778758739467     49.987055954473647     48.274185434086156
H      50.347425716042210     51.492478713116363     50.404134745189502
H      49.751831678914989     49.666225570353888     48.810553084104967
H      50.031109959953390     48.810698654045162     48.925360935472149
H      51.404348487606555     49.671012120304908     48.426620447606155
H      50.791024945815067     48.464780562231041     47.841164529901896
H      50.494258825792009     48.340418648221352     48.930347365113150
H      50.652971330338772     50.010151632485993     51.178384140258800
H      51.052288563060465     48.965205444584463     48.924765412618463
H      48.779518115751479     49.360223280232425     49.771798261055821
H      48.325379371909875     49.578304570142897     50.143855889340244
H      51.135839053386519     49.627352064250537     50.721548285116327
H      50.347120847817848     48.034808132693804     48.008183770639839
H      50.946829387812066     48.369922303577134     47.102237285209448
H      50.571442528901017     49.950423234728511     48.456857013470753
H      49.290222306888602     49.183909702554068     47.924263847620033
H      49.076141879810613     49.376493768279019     48.899255888728618
H      49.003995346214445     49.169177403759541     50.262260447512226
H      49.913098292968762     52.130972818535952     50.531420281731570
H      50.796787462653619     47.957663156672858     46.865820431011144
H      48.965378111156916     48.862501459640072     48.977463527767839
H      50.919777856953324     48.051056197602399     49.001178290661286
H      47.918662055545148     49.054311170554406     50.202510515473172
H      50.327357431647883     52.618405292468722     50.564673663690201
