38
lj38_benchmark
H      50.000000000000000     50.000000000000000     50.000000000000000
H      49.480552783016599     50.366576285128012     50.147773171775547
H      50.052864939535908     50.299827955152210     49.534352338138298
H      49.500591229542586     50.236050234111005     49.099623769490258
H      50.463050575218922     50.292238944408766     49.856775695124284
H      49.302717406220182     50.029569743734889     48.418264112782943
H      50.299935370617597     50.766943655703294     49.000965661201263
H      49.563349016378424     49.569225948422364     48.364589808028541
H      51.039783913862699     50.599992581133336     49.742113290266211
H      49.075561548069928     49.249345022307160     47.910321956859448
H      50.238579297629343     49.772015998417331     48.300250984796413
H      51.094992013791128     51.384453524953798     49.669684869776610
H      50.353615757480114     51.668179553069130     49.560707252753708
H      49.014872832761469     50.498807919568748     50.703577522999680
H      50.113971923140390     52.031479601531423     48.953022973380371
H      50.075156699978599     52.057880527086084     48.404314904504908
H      51.492723542310642     50.832426820343564     49.574946753725811
H      50.686623255496492     50.381085185976488     49.105581746705973
H      50.060900621454337     50.352054025863211     48.779900271162731
H      51.256775753941483     50.462365555668093     48.704638239930276
H      49.723751461114020     50.943122874570570     50.263060951417678
H      51.869324461586999     51.166144362081639     49.645791102507104
H      50.800694583950651     52.103457791866255     49.512761684936429
H      49.320875754406892     50.648788792435347     48.187685630041003
H      49.808954218386575     51.902541002751093     49.914492916580670
H      50.613086412458678     52.687640421271780     49.182048854899783
H      49.537680591148956     52.320253786602592     49.433260835115469
H      49.998904322088386     50.798959000290665     49.415358869459858
H      50.432327752345657     50.141386303376493     47.836943127238477
H      49.100298281468149     50.443049856521327     48.779943410544362
H      50.044726183781641     52.640139244321936     49.504562433570015
H      52.293863325046523     51.050571569744100     49.990753007815485
H      51.177360607528009     52.462690805688077     49.821875836668703
H      51.210679172891375     52.809136579980283     48.935260235732194
H      50.224060695436613     49.520262420971505     47.821332239365177
H      49.122560098404776     52.687751124361981     49.808894270764036
H      49.660141829504717     52.570462865919815     48.616581100254805
H      49.978965911156081     53.209778256839165     49.260181466605857
