38
lj38_benchmark
H      50.000000000000000     50.000000000000000     50.000000000000000
H      49.784190324609419     50.522313673154926     50.340995378065294
H      49.240773330456122     50.252505327479383     50.332013814890239
H      50.002149055645219     49.348707031234902     49.634836461828392
H      49.303044565210257     50.805325145255416     50.643898373932728
H      49.659580262152879     51.330717991960256     50.513148670952454
H      49.898112373650072     48.714607182556257     49.446439657416946
H      49.596202562977190     51.655390923014146     50.065353896581925
H      49.321240898244085     48.577325791036102     49.614979377026671
H      48.768602996616508     50.052013757821960     49.985124957622084
H      50.343811287831898     48.877335512052248     49.222864282814292
H      48.752617868039096     48.436669655620150     49.463323099119037
H      49.808730643181612     48.024292481665647     49.461599698683386
H      49.898569167207107     50.565221484109031     49.531833044711675
H      50.016157304099316     49.562016869522921     50.378570286230378
H      49.728097395290156     49.077787084799482     50.115272239887908
H      50.305924343750426     48.903934106862351     50.226122999074747
H      50.143867232495232     48.343216032507399     49.061054083017702
H      49.362504336760665     48.905743376753485     50.415774046358166
H      50.023625645346641     51.776784558334541     49.397050708765704
H      48.800487379321666     50.506769453559912     50.682656306148687
H      48.450241087824317     47.832652699659562     49.757827528406146
H      48.835886071731565     51.095177562881517     50.198492611196883
H      48.807795844861978     49.069807794223003     49.086142698284746
H      48.394732914102853     49.756816272399945     49.711980617429923
H      50.474629238104626     49.238331477351927     48.624635049020519
H      49.055030715580692     51.547296519850050     50.068092196385727
H      50.461815164004065     50.581645329127312     50.225956597945434
H      49.841261433687094     48.609732870480052     48.501448469619966
H      48.365903096417838     50.814584118443548     50.527972455104184
H      50.181492901532167     51.387887401131685     50.327885206588405
H      48.345590811208304     51.159478237702160     51.018900662443336
H      49.583694900745463     49.708959757622090     49.756601941501252
H      48.486846845847246     49.118542732599046     48.373739413461088
H      49.629299662866593     51.224559034113042     49.620972848712633
H      49.547229391984601     48.166429186616185     50.528507906294671
H      49.120738835844215     48.731254058019672     51.129113422552791
H      50.685332331189386     51.601785910796757     49.351324694570557
