38
lj38_benchmark
H      50.000000000000000     50.000000000000000     50.000000000000000
H      50.198727832294146     50.163258872875922     49.421948171283312
H      49.741891122076822     49.288043953975681     49.834129793195800
H      50.405154958041820     50.225398934635997     48.966482565191875
H      50.081414174182257     48.580369330367382     49.822975412762034
H      49.794905294697543     50.013229669559067     48.737865514662083
H      50.747970988086841     49.739933589896424     48.689516097322930
H      49.750758682266451     48.004038891904877     49.971326318924390
H      49.641704761603570     50.662162311616648     50.005383079110331
H      51.200380385415855     49.400859570423407     48.413483487772972
H      49.253665186125581     50.157981047235168     50.483108042753216
H      50.825183409088027     50.138420782059420     49.608619673098339
H      50.629186437708995     50.667316002936957     49.504061799807715
H      49.903371153698778     50.532373563982752     50.548902152607894
H      51.305642452903143     50.515735539095267     49.215818110879376
H      49.416365075548910     50.386255680196989     49.396621575672114
H      49.831296410276074     50.375689289899306     51.154708296374373
H      49.153701664608100     51.164861065617330     50.254935634516315
H      48.830681264567986     50.643216309329318     49.132980930874524
H      49.154370190358499     50.019581663659324     49.090702441479380
H      48.325083378465635     50.479855042888794     49.355674812030180
H      51.089836724590441     49.568434377013247     49.419591691348245
H      49.971526990164534     50.016677799733237     48.158117178621168
H      50.967470523377237     49.154759186663746     49.688649135851549
H      48.786044276407956     49.519353783348222     48.811412821498166
H      51.451019778473544     49.525051128249800     49.932735597337008
H      49.788069995050876     50.992233557082152     50.798580805888221
H      50.122947597837822     50.117351057818318     51.574454622691491
H      48.465294124971734     50.069288330426481     50.384078708478761
H      48.673225648088092     49.052182298803636     48.653832188635668
H      49.734396568734866     49.378548568040983     48.254650258893761
H      50.765868933396497     49.769118148143228     51.730825456300678
H      50.997821543812435     50.644569665429422     49.909850884402402
H      47.885959636907565     50.023276046000234     49.470143126800366
H      49.310796822859089     49.013685080094938     49.017897745721157
H      48.669471308868708     50.255544846690775     49.871479378752611
H      48.376873087397051     50.562122064084605     50.359054202024957
H      50.438772369587156     51.055320319406995     49.149226213408518
