38
lj38_benchmark
H      50.000000000000000     50.000000000000000     50.000000000000000
H      50.591420664646982     49.771698219888073     49.514738037849568
H      50.789319221534939     49.849568081868306     48.760056315990376
H      50.156465300049973     50.656574424230158     50.212361916855187
H      50.220025632936199     49.614956001780449     48.555159212661820
H      49.646949597894569     50.509146042434409     50.453419502088288
H      50.726558844300648     49.267403320148162     49.525295380879584
H      50.255642141744211     49.142301602346436     50.139969729161393
H      49.250103359893146     49.944008205116013     49.856034459262894
H      50.490725549095103     50.867137705620323     50.521271336964347
H      50.898453449009097     50.160923898839158     48.226008458235690
H      49.531931896863696     49.073062470726612     50.467826818259475
H      50.498844768713724     49.294049703704744     50.702871976628721
H      51.054779407660405     48.942323254751898     48.951877956903871
H      50.756956737201179     49.122018845092938     48.231755428976271
H      50.136564450568272     48.653654399696059     49.614650832879761
H      51.280911531108167     49.091111781511323     48.517795935214103
H      51.435485685355474     49.089601552796076     49.692506141127311
H      51.061261803026810     50.317105434131442     49.828016297127938
H      52.089793348135338     48.937834559769200     49.958244546633999
H      51.453605522631349     49.820910537567244     48.667149873505771
H      51.174443613240811     49.683741900851665     49.916196830070454
H      51.606545616806166     48.519245516891246     50.230925917159553
H      50.523998153550544     48.433262196419683     50.159400491036465
H      49.262870658105150     49.462137433599075     50.835222878856314
H      50.092611505144291     48.785215900524136     48.451747516551684
H      48.719482381755071     49.854154488884383     51.009773526812992
H      49.490211779344058     49.277103706883643     49.522548527599639
H      48.891414893224287     48.998432460139725     49.136997026989768
H      50.630164798133933     50.421710331634053     50.987614275465994
H      51.115814143784213     50.832975952656788     49.728750758308450
H      48.612612725732966     50.003766090325186     49.868366036808332
H      49.868129485346621     49.951182587203526     48.277352013112981
H      51.008029936506233     50.256003089047987     49.035735191530854
H      50.557364431354145     48.493679881903290     48.810557145905719
H      50.886803442180856     51.425633514221929     49.784677233601791
H      48.780601805971230     49.301752745831834     48.524486009636206
H      51.113108411997047     48.772180593280190     50.108816349665133
