38
lj38_benchmark
H      50.000000000000000     50.000000000000000     50.000000000000000
H      49.555301777921791     50.237317247644718     49.493277969139669
H      49.561259668911958     50.863394118634545     49.326514271640548
H      49.724660964603260     49.718212895320740     50.342476058225863
H      50.683496482451481     49.632032874556231     49.943436959226148
H      51.142514687991117     49.469320223532456     50.435945846613912
H      49.851681570986649     49.546479688719806     49.567269206571787
H      49.184063901712690     51.364202910543852     49.388512693430620
H      49.435888746751807     50.031206692464799     50.824509187280711
H      51.046023359822343     48.860131316562857     50.055018629885481
H      50.181511299148909     49.680066422626879     50.542825745009459
H      49.569734388139494     51.629569746932717     49.694295547303511
H      51.175965009037526     48.543225105844428     50.452364423911462
H      51.441047379484381     48.150301940742239     50.961097876973938
H      50.202951806995394     50.840542662139917     49.332213209491492
H      49.673107821520276     49.112127346382678     50.257247456120915
H      49.826669531950088     50.429084057553140     51.310227157098957
H      49.569724361166990     50.868466628891355     50.732531597341335
H      50.872889055107386     47.890843659962812     50.964808622401826
H      50.187200550843635     48.651201740677266     50.077303203603890
H      49.176396011354967     49.709790568613734     50.320508170456456
H      49.468647609947375     48.616045174298030     49.824557967986784
H      48.726686742162137     51.043699934793992     49.538437494779856
H      51.030273266233401     47.906285587759385     51.596428426637601
H      49.327924293380171     51.567297063263275     50.947718020358302
H      50.625596396884369     51.135979880758867     49.751261614026944
H      50.957037943316209     50.198901789851618     49.971121895214225
H      50.434050822524867     51.085443391696074     48.849970696503576
H      50.583900670425699     48.985828691481558     50.705507035501945
H      50.514615187135206     51.429868170268122     50.296135081702985
H      50.850314427288005     48.001061660832988     50.135031800120444
H      48.667744312424233     51.769574260252440     49.632371837800527
H      50.064153059509820     50.577852114708826     51.767569492556660
H      49.899972737802401     51.513445701599402     51.160707063263175
H      49.739102424685605     49.639670574530435     51.264382171872462
H      48.209417401885432     51.882429536752262     50.147985329415725
H      47.807739762722946     52.101393672058876     49.641126788178852
H      51.176219045680938     51.562243432122415     50.358470535635433
