38
lj38_benchmark
H      50.000000000000000     50.000000000000000     50.000000000000000
H      50.059218798420801     49.805891647460882     49.332378455986152
H      49.640219566263745     49.296992220107690     49.290168564018991
H      49.257481426899432     49.818934310003080     49.444913243093026
H      49.335459312793148     50.316794738577769     49.831558189711949
H      49.583110252633865     49.849451516647875     48.719148844764014
H      48.749390162052229     49.558751816345875     49.728824593158556
H      49.010859501609978     50.481166460706390     50.170211979888151
H      50.177476140837044     49.318723082680187     50.344803245801351
H      48.774041724397009     51.102294685056961     50.148139721516216
H      49.957363325394965     50.458088780967891     49.110224831681450
H      50.566863059728355     49.238747027691176     49.382398478825934
H      50.039671693959569     49.216196000382581     48.710717187984095
H      50.157951086118963     49.676782360846722     48.174024034333925
H      49.059741958234909     49.669111890395939     48.142843121012675
H      49.257912957202002     49.160781248270936     49.807285485716363
H      49.028265057011303     50.372378387589492     48.110231603662918
H      48.427426570771964     49.802015714503320     50.025131544726868
H      47.784567926044609     50.032004377817188     50.169114040491920
H      49.508073020146419     49.663569578828628     50.486876268799968
H      50.906676056976202     49.837197978021869     48.392508649996500
H      49.746401179446657     49.433725497825655     47.782929712297474
H      47.799578812652456     49.324750447044565     50.080346142384684
H      50.239197804033921     50.349360535760802     48.153063793155304
H      48.451937141814618     49.756177408127414     50.766641324779961
H      48.633850039865699     50.409640370154428     51.183560446181993
H      48.063716303875893     49.454297230417694     49.443854981075042
H      49.060216206967262     50.924019201794600     51.070982975630770
H      48.184149013215894     50.433963920389971     51.834355700198408
H      50.416456760833363     48.601707275492537     49.847224986980976
H      49.246755826257470     50.778294099151047     50.565756658861559
H      49.513525735348139     50.599077703218946     48.691734416499699
H      50.224871288458360     49.032965998652472     47.360471028251055
H      51.635537056810307     49.981338733339179     48.495772044714528
H      48.791066735799795     51.407512356254678     49.575665907206862
H      51.508526370030886     50.664093281812796     48.456110170536583
H      48.238027327356768     49.830764804741257     51.228383476061154
H      48.833376847381700     50.053715388589261     49.783378841010247
