38
lj38_benchmark
H      50.000000000000000     50.000000000000000     50.000000000000000
H      50.638908905054571     50.203785991853209     50.023462351229796
H      51.189288961426676     49.955383997386136     49.522239279689785
H      51.622053634416822     50.097491809974336     49.988500863408376
H      51.753797771771062     49.336100857019126     49.862368531512040
H      51.512379647816481     49.041861511941065     50.389631796563656
H      49.878023883327856     50.699114229819607     50.334432291157889
H      49.848905504941087     49.281105309605124     49.758396150699326
H      50.474465362443183     49.561153025730945     50.237217880573589
H      49.360347244608207     50.827195023715007     50.513620900927776
H      51.063454927621052     48.924900623024911     50.972030843519249
H      49.371976890759811     49.524051242940409     50.046054947337105
H      48.866881880918413     49.302341296517433     50.527778810644413
H      51.879551014260734     49.417978019391661     50.879520987727879
H      52.166487992459658     50.328504728944360     49.616348652479097
H      48.461686560190024     49.517396441795043     50.773811609794670
H      52.064009121080879     49.243598928048947     49.478213503159708
H      50.868455516165056     49.185581454278733     50.534030559352040
H      51.912204737600504     49.621639597946249     51.379326933293683
H      48.666807117951194     49.273374108124010     49.851011205234038
H      50.614195719463481     50.564473582407153     49.463670489414135
H      52.188445117891632     49.177771826645348     48.776326730861179
H      51.063448904608578     50.597760526739123     50.123542829488443
H      52.238652544290503     50.905086633584979     49.757036456773911
H      51.771321835677490     49.127254972802994     51.501421862004442
H      51.211337414517949     49.832170911694099     51.091907644160258
H      50.917074962530990     51.156703487011157     49.992146678741022
H      51.113870848918005     51.315392353782642     50.645112822381869
H      51.127595105657718     50.950232312102258     51.116738341983137
H      48.895777100987118     50.912778137077296     51.119486729230779
H      51.811656488269868     49.587255425552314     49.209650016688649
H      48.140591910769245     51.015135950661445     51.296356172497269
H      48.664967880944751     50.420980028367516     50.656419236947890
H      50.437478353769450     51.493139158355994     51.013339579749598
H      51.719210050316896     50.195934437424185     48.979807656850141
H      52.228170457896361     50.237314588436689     50.149776964614958
H      50.809852444689085     51.418135564181874     51.530082426374626
H      48.554185733696933     48.826761559828654     50.802224836254510
