38
lj38_benchmark
H      50.000000000000000     50.000000000000000     50.000000000000000
H      50.264027532741856     50.334205864009668     49.496137720003034
H      50.361203711123153     50.851663009282547     50.000150825928955
H      49.816533378261532     50.506846610762352     48.991485861316221
H      49.367086030852811     51.061764918187279     48.803697607731436
H      50.300191968657067     49.959322204106250     48.924317841571266
H      50.730532508403542     49.780890616119855     49.880027569119477
H      49.457686827970782     51.412128192642932     48.233181589351013
H      50.890656141363230     51.196050209283740     50.482508504708839
H      50.781798532821902     49.636975661849000     48.999008869805266
H      50.500301890317708     51.272114386124137     49.362667783421742
H      51.086853543658236     50.054709567812679     49.424780558908687
H      50.243489316818419     49.367612770311545     49.207889243444320
H      51.095246909377082     50.865010721862198     50.020246534433831
H      50.838698256633613     50.665164067229959     49.043233255897491
H      51.458882189624148     50.446324504616548     49.541666158220245
H      50.416372275881827     49.301824933445076     50.006563807922014
H      49.994237023589072     51.408817394907409     48.603590267799916
H      51.313925160037719     49.611043241230028     49.338228288666983
H      50.678134322884446     51.343775476545986     48.729885409190622
H      51.472720764841831     50.642578509920561     48.819106408015678
H      49.325618413453448     49.821647102984684     50.060279425130567
H      51.385332718172613     50.116576605970870     48.927556020633467
H      50.533527476409965     51.172710101194369     51.150498675967498
H      50.667819171607789     51.496562776008737     49.842111524811571
H      48.623452652218347     49.698612290981742     50.033875719206826
H      50.997621714076942     51.915004563153417     50.548725256371441
H      50.544943887658427     48.932270345407360     49.616180833566069
H      51.528855978613763     51.038923396093331     49.362197642262352
H      48.860006703016801     51.034325487617053     48.952958637866359
H      48.845221064124416     49.213188900577222     49.854326345569234
H      49.250419666865852     50.834528079969886     48.295552034193797
H      50.581859619076205     51.949396275724084     51.134558544131139
H      49.932760330188110     48.823609141245093     49.486791356392516
H      51.300284779531786     51.095973027469455     48.199327659416973
H      51.458622249758292     51.518160561061840     48.939445983483758
H      48.316605040626769     51.502966085734855     49.117959909318671
H      49.967631343826739     52.195168748982539     50.688618893613956
