38
lj38_benchmark
H      50.000000000000000     50.000000000000000     50.000000000000000
H      50.194045664614279     50.431088346856143     49.372733195405139
H      50.358878566016237     51.037693372902453     49.799706322155558
H      50.656348274864968     50.792305612225817     49.144382991960633
H      50.491293189976844     51.213037899584307     48.815384569504552
H      50.095631691282406     51.678458579833361     49.235279600186985
H      50.630637532207047     50.174128188678544     49.838291495788440
H      50.714866864727178     49.768895218971998     49.423693422534043
H      51.140987259758724     50.803640888679986     49.275112999837326
H      50.827657687971204     51.132900982713998     48.187049348712463
H      50.414761651383117     51.417487140964980     50.331047059925723
H      50.469454537540138     51.537455526196702     47.748604943232202
H      51.057223878805608     51.915052165022928     47.788980524433960
H      51.579630515312502     51.416070504883741     48.122584322022732
H      50.733413858405960     51.261650136327610     49.389351198322721
H      50.313625300059556     52.090667303795684     48.087355897573978
H      49.865350416599895     51.176606691890001     48.958529726149735
H      50.998162993619992     51.774279053322964     50.231114267381876
H      50.527045071528264     49.590057205989652     49.848845968428449
H      50.472455379265519     48.878837634616168     49.547722737333984
H      50.298886116253364     51.743954050203875     50.923143754270306
H      50.793026730856845     51.082767516413440     47.674055624812425
H      49.859997129179803     50.597608548718100     48.616002289873137
H      50.370862677848649     51.738286329573178     51.501211095957117
H      51.521510262120628     51.918644148269841     47.375795069534654
H      49.874863071671726     52.490276136963928     47.636395626777187
H      50.793750606650534     48.918040778905784     50.068950043967391
H      49.645351700287733     50.652140530077254     49.696035503570030
H      50.355687237976404     52.105616561316495     49.906304175848597
H      49.467949668866332     51.639643437835403     49.428074887145200
H      51.548413849769659     51.009054336414387     47.658975869804564
H      50.876894937082895     52.056827375944806     49.679598160111269
H      51.081752490701653     50.842210724962420     47.119919495071485
H      49.902613097118980     52.111928753382493     49.440424466090839
H      49.986499605236197     50.229517950436602     48.248697935481786
H      51.919520883223704     50.714650121190218     49.185384686458498
H      51.140671601586398     52.607191050936365     47.997775360179588
H      50.651059383467576     51.123320902437811     51.824323739663278
