38
lj38_benchmark
H      50.000000000000000     50.000000000000000     50.000000000000000
H      49.349209997541990     50.430793216412184     50.188337458433679
H      48.806322980724097     50.466189024119970     50.483145901663846
H      49.110217421823933     49.796887813555507     50.667961498144741
H      48.179038839341651     50.697761031030126     50.567916863929582
H      48.014886689809572     50.834126922680461     51.080054227195319
H      48.332713016814651     49.944306525248543     50.209633052621456
H      48.817556089532019     50.636340505147011     51.106730912948372
H      48.334804251499875     50.038985556134250     49.591345323963601
H      47.697146034928487     49.746929294905627     49.972888889985178
H      49.416852582747936     49.721937347188209     49.946229604388037
H      50.532004456007009     50.188171597647290     50.053661324212570
H      47.561831612828499     49.138227507669491     49.879913185233505
H      48.783598191184403     51.232623018744569     51.390450864739080
H      50.693038670793726     50.157375566089470     50.583921688057771
H      48.307252047538981     50.586341513884918     49.626901626084766
H      47.633806481644690     50.630046617424604     49.993296144142590
H      50.030548181622024     49.263283127612567     50.117654897897800
H      47.091282874789620     49.528698991286774     49.872595789625926
H      48.016969675222072     50.006381122752224     49.046191970244429
H      48.525435623730480     49.409871404011803     49.570234270593431
H      50.749031802018862     49.574454898221369     50.807461623585652
H      48.746381459688649     50.905297916742569     49.612397351938618
H      50.438280739231054     48.885148270005303     50.630333623811005
H      49.468011800538825     50.874477334695534     49.287821155285712
H      50.904566158838250     49.766221849792927     49.588036824210931
H      51.392401549179283     50.125508134746390     50.389658490250717
H      49.086280050755022     50.873576721139543     48.716456822799657
H      48.919098995823262     49.517308325534742     48.886463970622877
H      49.319854520790280     51.449995433885945     50.938171664395419
H      50.585572797585435     50.201051265437243     51.358329994537556
H      51.165650846081213     49.699157000721250     51.530523242958431
H      48.375801150651583     49.460725857530832     48.592839869105127
H      51.131342117591586     49.161968965451457     51.647275276066779
H      49.454156147273530     50.721244304529627     51.402302157564641
H      50.028706812465188     49.178961058433885     50.696503365341634
H      48.666435008297711     48.886965309854666     48.405252981036490
H      47.187846836444486     49.537272559122357     49.346065753191034
