38
lj38_benchmark
H      50.000000000000000     50.000000000000000     50.000000000000000
H      49.401765944539143     50.184458678012916     50.315338856156586
H      48.666860717651396     50.446861719111091     50.183580547641995
H      49.405121354455147     50.826142658695730     50.246999878633936
H      49.014830047139398     51.320402426177672     50.701635735188098
H      48.945649682333013     51.291404423509015     50.015173776258635
H      48.375148873149250     51.112917181128452     49.937254671222902
H      48.453099190750038     51.158963745182817     49.374787815008311
H      48.449362428665260     50.743878477063433     50.877444532854319
H      49.918736811384534     49.530148459408139     50.238780165431230
H      48.749508427820786     51.035137422576469     48.694258823947528
H      49.059460153048889     51.214963440365501     51.477600271551147
H      48.847258268375036     50.481803050632855     48.696119060728030
H      48.748779046181582     50.390586299913302     51.140015535989939
H      49.146385218398038     50.495083872978427     48.199304101007456
H      49.334912625636150     49.825574012786831     48.138817604833839
H      49.287528285649699     50.806212242071133     50.859140589963857
H      49.068120043957627     49.758507024405183     50.091273813075624
H      47.979094168177610     51.297963729922976     49.605988324328798
H      50.046500085378376     49.782285740435981     48.215337463808552
H      49.557252065753119     50.175562922638626     50.858457524973488
H      48.130418048879939     51.871740902017422     49.412130738107692
H      49.405400451439277     49.602279537219161     51.110285225700821
H      48.029772259769942     51.387954241645787     48.806930032840427
H      49.507800032514780     50.831706923018359     51.970958726363868
H      48.506380189794207     51.539171833807657     51.255656237970825
H      49.746842218733555     49.367995325216484     48.784148511524869
H      48.138053371601949     51.289358655613825     50.724061333038144
H      50.708965460698849     50.010173484449936     47.969942457865464
H      49.937509074012773     51.457454950268392     51.915063461077231
H      48.816919378073003     50.097865949077153     49.130098297225949
H      47.843325862981942     51.050132618381767     48.183781184680313
H      49.208926167943460     49.835310171582037     48.860078737686322
H      47.719265530070004     52.065216720682059     48.507529772147656
H      49.935939421621626     50.974041902041904     51.101679142029724
H      47.497069999682026     51.318412983802602     50.074476564047131
H      47.467762427750699     51.091108030321628     50.844026118945607
H      47.947942982256798     50.785584210427508     49.176967585725386
