38
lj38_benchmark
H      50.000000000000000     50.000000000000000     50.000000000000000
H      50.262345493594481     50.445945384021151     49.424532005157857
H      50.044028346725973     50.297079276794314     50.487627765498196
H      50.127451509251870     50.307613538319735     51.279395387082552
H      49.876505528321388     50.652493834266636     51.958234078621224
H      50.226726734318156     50.833374872439634     49.752259370116747
H      49.633634616749184     49.945498130852528     50.331918291603316
H      49.048079228244653     49.715650499643068     49.916697134213528
H      50.088493814473658     49.408834448685056     50.480160970557819
H      50.753504389811418     49.354096769484187     50.172059679876511
H      49.572597718573384     49.318369950460358     50.800016655587434
H      49.607243774557745     49.590740603729913     49.579829719617500
H      50.153101793209956     50.961305227149644     50.805229621964671
H      49.721737745554812     50.702319843270722     50.361021826633340
H      50.699796266957257     50.465172531827299     48.773697725853616
H      49.267336137750654     50.920662221333352     51.857170739557446
H      49.608009635585212     51.327217067559680     51.308468250789282
H      48.292160126323594     49.718640329941955     49.661659693518445
H      49.979456560187316     49.090405799022463     49.456349322370535
H      50.860667215107505     49.196612447554088     49.543917567282534
H      51.151579588316913     49.851087507146680     50.319689956302604
H      50.549779692858174     48.794219967869950     49.699544731784812
H      49.938370806596211     51.682778405241784     51.620544209133911
H      51.268374016982520     49.942858235320649     49.596376782929447
H      50.008419212573969     51.926812225955388     52.058978739985626
H      49.323742202685132     52.004703999277638     51.140420307809407
H      51.612757693733336     49.597959719451396     50.843179501674882
H      48.760810029498771     51.335640628569486     51.817356492089388
H      49.883613911799600     52.109261334701202     51.152599076319980
H      50.438918693705467     51.748765940121849     51.623591987431872
H      50.143316562331421     48.203771600196369     49.485520678099569
H      48.647349094681140     52.330770833872343     51.165994363596560
H      51.352630532174743     50.521618476454918     49.522582687146283
H      50.207003245881928     48.226976680085421     48.747494819689798
H      50.424041559662527     50.981461492078950     48.940438455689723
H      50.971773088020683     49.495077354821099     50.919494442720342
H      48.165850428535904     52.779885063979272     50.851886671429597
H      47.990395571485450     53.117309955024716     50.442217884827549
