38
lj38_benchmark
H      50.000000000000000     50.000000000000000     50.000000000000000
H      49.874949314583397     50.207909427750394     49.499848623829294
H      49.969945987005680     49.549526091521628     49.719662215651113
H      50.181722699654657     49.699242415025779     49.252354605729508
H      50.643080218422284     49.720780973216655     50.234257622426604
H      50.609730919679052     49.182930231322096     50.075352855444670
H      51.406696790924755     49.173943030544017     50.164480453672667
H      49.824931513247911     50.593354574548599     49.039866184240786
H      50.004796665492115     51.180796776257537     48.542172418094800
H      50.667895194194365     50.859147260396867     48.269635735751464
H      49.621837679750243     51.555655312131243     48.882363813927931
H      49.480390696868263     51.275541167651440     49.551453371227218
H      51.293489471633833     48.989516992350680     50.758235689411791
H      49.974674230481924     49.773535570041943     48.681847093196048
H      51.041937873334440     51.427120099822432     48.356939983202530
H      49.597601184429628     51.127901349915454     48.170538667476983
H      48.889111575849135     51.657679803005479     49.857279377120641
H      51.166243783778974     48.626846595392990     51.335845949357420
H      49.384339320097908     52.031341718565002     49.479699697713265
H      51.702996139703153     51.261193468640684     48.374943093193139
H      49.968241961255309     49.208499723507835     48.489049997521924
H      48.907180459028567     51.081821207088986     49.775221759190856
H      51.766134782757547     48.950419594761570     49.634569596746701
H      49.547794762818285     51.598150862616855     50.070480161227380
H      50.208413316164332     48.636396840052043     48.761328526750901
H      49.321575581671333     50.758930140197108     47.685871122363210
H      49.976609662677937     50.901001457817991     47.733286412167715
H      48.934986186993626     51.806442982083972     50.615765575128151
H      51.114097798814477     48.621422114904433     50.259042305834690
H      50.300862209537385     51.714435553357895     48.581648692280723
H      49.237633275974162     49.286778517301819     48.808293410454908
H      49.861021264988899     52.495140041629199     49.796779085512831
H      52.071462684220641     51.595318804749517     48.676551855302421
H      49.319646617210786     49.412483123948569     49.776030912493255
H      50.689395647898181     50.013139843059044     48.438049934294149
H      50.351700976767034     50.447770854065404     48.708088240611062
H      50.200174546520493     51.209354699479611     49.839971104079162
H      49.821440812468879     53.081799493363761     49.627023784758983
