38
lj38_benchmark
H      50.000000000000000     50.000000000000000     50.000000000000000
H      50.457888085382244     50.153120989937399     49.705953706149977
H      49.652023640786609     49.629561412105474     50.102921332688190
H      49.953789768437829     49.515460999903219     50.801716818982975
H      49.657764326450369     49.162985554325005     50.295517450686148
H      49.542917965708597     50.456451962509661     50.363284791275902
H      50.165283302549895     48.896693840108057     50.449581466100206
H      50.272720162657542     49.475755569788802     51.422016483902759
H      50.232499126035357     49.962398673982747     52.039740856769455
H      51.029794867763748     50.124758133306557     50.036955859273398
H      49.542183867448998     49.408203352520175     51.182990696974677
H      49.300243949843576     49.832212682125622     51.618452524793994
H      50.362868073695161     49.115230440194573     50.936401226817587
H      49.486089554520191     50.033117739529288     50.975031193945611
H      49.065791604900227     49.141327370749572     51.092832785262942
H      49.970701460909176     50.097081806152737     50.556216428491950
H      49.709466132756368     49.461442825597295     49.418796344793435
H      49.574864959105895     48.928870653206644     49.775509412756612
H      50.054891686328759     48.530181038833497     50.933525978504086
H      50.275010062475410     50.775914349594188     49.622568738436122
H      49.071232420261083     49.167259523760670     49.145489195208924
H      50.629214386295374     50.166156243374353     50.632997397007614
H      50.012024037560934     50.375705371182910     52.422420240796590
H      50.538477406504988     48.232511469991088     51.204812986527301
H      51.348234765858976     50.748231362555224     50.297072484218113
H      49.790696088252432     49.556999356106616     52.065046178816566
H      49.316375925362365     50.570656903579305     52.384427232995215
H      48.615601229445595     48.786153425355764     51.439798316260898
H      50.625622220163166     49.214132142578222     50.151703940848137
H      49.426851251157977     48.739332305267325     48.837726012411707
H      49.951283836742107     50.637946630186498     51.697881450364555
H      49.346920427579171     49.831472163838676     49.394083328738148
H      49.233713212256184     50.426566245735557     49.805637493458356
H      49.015604175194291     51.028887568787731     49.901831953050106
H      48.479301764139549     48.131901780122540     51.784367890723999
H      50.799535217609588     49.903745955583453     51.223593703452750
H      50.836324713199247     49.230619382354021     51.815234972925467
H      50.210230667833905     49.680436576574856     49.369721707554184
