38
lj38_benchmark
H      50.000000000000000     50.000000000000000     50.000000000000000
H      50.192015953546466     50.196077048463991     50.676669961620952
H      50.224733638828560     49.822172675637404     51.269416182298770
H      49.444479490990723     50.359201863613087     50.718953271189058
H      50.622628461433493     49.837713997406127     50.172096181039549
H      50.523353471450065     49.339597521761732     49.618227481330706
H      48.923732112967357     50.052362414092741     50.922329151640348
H      50.865640019088893     50.448193732358405     51.029875128386735
H      49.854431982880953     49.299605440106482     51.051165593858194
H      49.848546948735134     49.415500586906255     51.639698396581331
H      50.716602432187301     48.664194174604106     49.832244811871497
H      49.758329389056513     50.487584996906172     49.734141413284981
H      50.799918089667841     49.760919233541706     50.668689530533875
H      49.135158937685645     50.260568777442892     50.237598450334850
H      51.126888114053180     49.587597056310400     49.225302312352170
H      51.347949118133428     49.612191391109072     48.497960748757798
H      50.474396600640652     49.255995709362793     50.105230807741435
H      50.731458791515706     49.708172176551372     48.794030831134634
H      50.096316825973595     49.347554418943957     52.300888128462908
H      50.729381260973881     49.366009579002409     51.802598006115183
H      50.193121479045693     50.400457714443732     51.648938375258375
H      50.818033357546696     50.091985446190677     49.475380849645468
H      48.974468478581016     49.399067478256647     51.348865240912801
H      51.119659680987027     50.111358435059643     48.571139819737937
H      51.044629013017882     50.694003586254354     48.188943185697667
H      50.774425518488890     48.382345109427604     50.404910742020078
H      50.723378980910098     48.493588667034487     49.049939082710360
H      51.035083212408843     48.125304903019703     48.752934182785538
H      49.916920428832903     49.907914476094241     52.715833726217461
H      51.244324442708759     48.564346813908088     49.495554681792015
H      49.856611566716360     50.012005256512822     49.515858609610767
H      49.796654842197469     50.875157302227109     51.174013051448284
H      50.375394785497981     48.575226433017285     51.018693056329504
H      51.213248906733455     47.623818221927472     49.246119501008614
H      48.233279678356382     49.668010346883982     50.797355715813900
H      50.207628271039432     51.382126483879148     51.321983305757037
H      51.501808234462459     48.094887170350972     50.540440012121593
H      51.418302330187146     49.338913054394567     52.042311663492058
