38
lj38_benchmark
H      50.000000000000000     50.000000000000000     50.000000000000000
H      49.726640804815474     50.010183934002903     50.579202610494384
H      50.147354378609329     49.956268751416175     50.911107883706023
H      50.306290441455658     49.732101214025946     50.437153599946498
H      49.298879078592307     49.985448449686693     51.049333819051881
H      50.347688667724626     50.578611208469965     50.313371780949524
H      50.462663058603965     49.932276591103886     49.776686226532654
H      50.673291947132881     50.178090260943861     49.250668582362067
H      48.696855478042863     49.642403333169959     50.984378512625455
H      48.606737404822823     49.115786445154448     51.239133309253134
H      51.046822649833999     49.701558093536335     50.488846633283899
H      50.096661878832109     51.024926952204083     50.216520751593940
H      49.339377905480987     51.001665148893792     50.042063874956831
H      50.567388972353164     49.209978189383378     50.939862381943499
H      50.826548655731223     50.292881977203187     50.987399156908602
H      48.986329670893667     51.013664947685157     50.442321288930117
H      49.284215510611652     50.451559504118599     51.412976819250389
H      50.733559949640899     51.028938430189910     49.904044814198976
H      48.783550620970566     48.888084466214600     51.834317093683211
H      50.639078073795893     49.426069136319697     49.782787204990967
H      49.358471939966051     50.462447811932144     51.907903149659511
H      48.999490460540642     50.171939129551816     52.164787091200914
H      48.913437603000951     50.869250386433130     52.293268071262425
H      49.968233948223393     51.327834845020291     50.786867525653790
H      50.130569810144259     50.656491128777930     49.332882882473584
H      48.775072947439440     50.433336474442896     50.211163999454399
H      50.693338061350765     50.810184803382832     48.767991238395112
H      50.380005890776921     51.059148307674747     50.918338832820957
H      48.732897702530671     50.682794809475126     51.037138058609067
H      49.527405261959935     51.149271363062667     51.340241392166455
H      49.210497952736041     48.959478645343289     50.909646666722651
H      51.485912632880513     50.434883335323683     50.647656329624176
H      48.560079097612565     49.918652863758197     52.174461236142051
H      49.400426605515449     51.504692745540538     50.674085876108677
H      51.273385659699954     50.389519839131246     49.611100920093342
H      49.001869249977773     48.475732477602335     50.330911838301652
H      51.250544908531474     49.159843482599427     49.941987619386502
H      50.850089270546043     51.372450515948579     50.254220421584556
