38
lj38_benchmark
H      50.000000000000000     50.000000000000000     50.000000000000000
H      50.205192681535422     50.150051649623279     49.443379226026927
H      50.841811777836874     49.889851223127238     49.807423318211107
H      50.271620197173831     49.470027234878238     50.221087714786911
H      50.721647419158046     50.488142780711541     49.260264555432052
H      49.797307904272976     49.779877434909686     49.401169248831501
H      50.994821432092742     49.343129801182464     50.495107726146514
H      50.080971946137780     48.748369720659809     50.001963877806908
H      50.435691170307159     49.355816630692601     49.193919595198459
H      50.783212345006511     48.822493913530010     50.167200128638527
H      50.891208994265710     50.988631784472176     49.360924964928358
H      51.099533968831956     51.627516069753298     49.719922300684573
H      49.282601940537290     49.985974136328920     49.552778911042672
H      51.269911376136868     49.086084047856602     50.845248124576635
H      48.897355792657542     49.314325107627802     49.709500270972427
H      51.533288239923557     51.309405714996373     49.248917489960498
H      50.316947496156445     48.326861335325688     49.509299563527584
H      48.861619496212761     48.843772842364061     49.995799612901564
H      50.136130426547417     48.888997207569425     50.782508271669890
H      49.250995630123988     50.451877512169716     50.001930325900844
H      51.599477715280479     51.973860099199847     49.773673499233340
H      50.307056266383540     49.062099626689964     48.649549818594359
H      49.496098789395994     49.319057979509715     49.119365576251745
H      49.442015086930951     48.609130080040842     48.918458004202705
H      52.261530463741195     51.833975448889042     49.762654618773297
H      48.802438297719142     48.471575163710220     50.567960863788187
H      49.402267545135459     49.264735270248046     48.409235264915168
H      49.583222744969440     48.193100453364416     49.727690141387058
H      48.632401340996196     47.980571968932864     50.167039662659128
H      49.610708342407690     49.584261328920739     48.023523613464285
H      51.251524442302042     49.974454943301986     50.592883753184410
H      49.480840523233546     48.130339871058730     50.536583221381264
H      52.652430609992010     51.522080111457804     49.252042076420615
H      48.685060494306278     49.260949889711860     48.288634282133557
H      49.514548496602352     50.256499469126290     50.541910635299352
H      51.781368799967474     51.257867391452677     49.907704243582678
H      48.874756850283823     49.772227052839590     48.807622964234454
H      49.751065269397650     50.611481111309914     49.060378166089421
