38
lj38_benchmark
H      50.000000000000000     50.000000000000000     50.000000000000000
H      50.155466118494445     49.812126458291765     50.654650006145566
H      49.757340402407912     50.101710117778403     51.044245753649719
H      50.698995363716563     49.644244150190026     50.517172634096433
H      50.116611163715461     49.543480201014653     50.189606266116201
H      49.712368826418185     49.278235427904413     50.348884321578794
H      49.739313915631335     50.549547129979473     49.471427696378001
H      50.024296548726483     50.434476442650713     50.386969076843847
H      49.615019233107589     49.661232016443101     49.614508407440738
H      49.500375804877912     49.420295784120611     51.130327742006877
H      49.630603233164678     50.980922993560576     48.995385251723341
H      50.730075507620242     49.861436982223893     51.205647865233814
H      50.377968517289311     49.013577569863529     50.394471927614447
H      49.951189108493018     48.722483169369198     50.875486549059730
H      48.877667155839049     48.939777791944316     51.296110757636413
H      49.542744344670034     48.574259410907061     51.307038235253245
H      50.533029652882057     50.440266928780325     49.785533055652934
H      48.437779605808871     49.306789294585307     51.168192824675430
H      51.350652487906679     49.835426272317065     51.175655603574391
H      49.801580007648191     50.044642552100115     48.866644899020983
H      49.834978139264209     50.705999553496021     51.533281957320526
H      49.396716290836565     50.426134313038787     51.951856857130835
H      48.356608745538630     49.507171593094633     51.732406948048038
H      49.821648988336790     48.082390834622949     50.598272076558885
H      51.206589415763119     50.022481032197156     51.705103451471288
H      49.535989357018032     49.379750329832014     48.605681837163978
H      49.402529910727516     47.498838076965228     50.751894857046302
H      49.609996110347119     51.462949716837940     48.580646322571504
H      48.935506659470505     49.389798651680039     50.554021374537434
H      50.253199208344093     48.091474646179485     50.011218760176924
H      49.305027883814390     49.906371488679177     50.540587781589899
H      50.529969827442045     47.601603264728169     49.881793049006063
H      51.125204200598048     49.192831896157216     50.749060024671181
H      50.857867706513076     49.409160215716327     51.437796723897833
H      49.115120385721120     49.291399920779483     49.809604819786038
H      48.794997531646878     49.466443404442508     49.302264544595971
H      50.834532273285284     48.552980778643629     50.558101984617544
H      50.323296930062227     48.785602685849888     49.671557475688388
