38
lj38_benchmark
H      50.000000000000000     50.000000000000000     50.000000000000000
H      49.703720252552955     49.337103280197873     49.805441185681701
H      50.111154527021903     49.549142180689373     49.205115388556273
H      49.493182610900860     49.983243207895860     49.510078040458986
H      49.585595691331278     50.440630741910518     50.376900489858670
H      49.236427625091366     50.514428314877051     49.074258098353411
H      50.005098470593431     50.847519548481067     50.476785370803903
H      50.413307744127422     49.279258484208889     50.113851187421560
H      49.994154890847277     49.570643904105523     50.252751360981897
H      49.265882977487514     49.371404375763490     50.122974320638292
H      50.482597282749076     50.360934670235885     50.880809549175112
H      50.515659282831194     49.666391826985716     50.972627704577505
H      49.688171365195117     51.513327335317783     50.228175422201858
H      50.563124253490422     48.569448864577907     50.158967529875603
H      50.838615188414316     47.979734619402699     49.855237773083601
H      49.659888142928807     51.044278564946175     48.922367527440990
H      49.441892639401757     50.432785481707185     49.784492731247958
H      49.881724441044135     50.264038516858015     48.976425873877744
H      48.770069207065205     50.608073284679122     49.409481397896656
H      50.601582659959860     50.053710847718712     51.450558051043174
H      49.074299045278956     48.769426761674680     50.286048812025967
H      49.130299846100378     51.610245673802829     49.937554149099583
H      49.091751894567636     51.048985558273756     48.476634540028805
H      51.142528364869698     50.215967829401471     51.006164886393144
H      49.958572385027132     48.467850233004974     49.893047832459345
H      50.244244543293952     49.698662659297646     49.665480129515004
H      49.794480053842534     52.299170939962352     50.241886771138780
H      49.592992495786817     49.487845994897278     49.182318613536701
H      50.528011751843430     50.242195666926087     49.591044954210311
H      50.633510328551871     50.494701501412102     50.129656498242930
H      49.536094718001365     52.346549160813908     50.724258866069306
H      50.439675330959908     49.000449840066409     48.802028261145232
H      51.385314863928620     50.660996289071136     51.420228911592787
H      49.103936173090915     48.737342819952254     49.683786299266842
H      52.073863702918700     50.415947387368661     51.438004488587552
H      48.864769335851122     51.973857806439547     50.412000416755546
H      50.127809611045329     49.196922718943995     48.343819646024578
H      49.004098556178441     50.024218487030367     50.674663202108569
