38
lj38_benchmark
H      50.000000000000000     50.000000000000000     50.000000000000000
H      50.069135838067240     50.579762030701346     50.296485220695274
H      49.804602024855093     50.477046438748140     49.476145439112251
H      49.736473349469492     51.020727786917405     48.903355060914400
H      50.230695479312203     51.051443288137094     48.783172685949438
H      49.523606545459074     51.747177930200927     49.009967519246032
H      50.243156649026204     51.757657927232948     48.766865494957457
H      50.446313256456200     50.504663198818285     49.716158600865654
H      50.603369347428391     52.223488011283237     48.685405427965904
H      49.646796113319184     50.068957293138595     50.523523231463592
H      49.506698206151455     50.568980416553089     50.918231399196436
H      50.065730849764030     51.329653568386817     48.122328229050083
H      49.811772989799280     49.503660363076278     50.548666843195704
H      50.182151288902404     49.897883542217393     49.406648727062226
H      49.331735898293630     50.882236554714261     49.631385585787164
H      50.628474399942242     50.699913072802630     48.800106449689999
H      49.019463983865386     51.690212368996917     49.149814890354946
H      49.179369204468586     52.186565714491010     49.444886293342137
H      51.188949767139619     50.180948865376529     48.978025713154771
H      50.515489604881573     51.442438146836523     47.732478639104805
H      49.047048567451014     49.815958367868809     50.461400091893537
H      48.700901802048648     52.174753388621163     49.046751188811996
H      49.730953761707006     51.933335146903971     48.151815895195718
H      50.388496357574368     50.226275981997084     48.228674203945197
H      50.715701456220401     50.338208325861224     47.860310082529388
H      49.978432624321123     50.942134144405507     51.040968194986021
H      50.812875875601556     49.494976164739100     49.154608925707151
H      49.626391743357296     50.762384897209536     50.431382393501330
H      49.680889487961196     50.097974223769448     51.273907263826970
H      51.435911210560846     50.800944147205854     48.883093891498717
H      48.821217323753551     50.927246602249390     49.901569164292383
H      51.572157787173055     50.224554950443441     48.432200774770116
H      48.827765944866918     52.815166575820840     48.577723909282462
H      50.074477692204908     50.834958167452889     47.566469647460956
H      49.061716972653628     52.962613819139293     49.125664340310777
H      49.707308324448270     51.249457652635940     47.057147883975311
H      49.110699393331075     53.553334525961262     48.955695280508898
H      50.270355056764160     51.726839198906546     46.755286382577658
