38
lj38_benchmark
H      50.000000000000000     50.000000000000000     50.000000000000000
H      49.521680856433122     50.124243464483854     50.487731692561319
H      48.755755930388261     50.230783318047131     50.347268672104271
H      49.694365878968377     49.601999820469871     50.346141301336935
H      48.775983976735795     50.028971069045035     50.999890818226682
H      49.789201745913729     50.450514649078258     49.540019211997830
H      50.137363022196695     48.978882746198124     50.163515065601104
H      49.113495820572652     50.524430050530015     50.717291987222438
H      49.195831517688646     50.702939739093473     49.268173990707510
H      49.285273193028083     50.454793428348374     48.625232259860965
H      49.261823585962787     50.268655023402893     51.201282024043572
H      49.026980757541814     50.949321193180374     48.705296887771283
H      48.365044474298280     50.216838964189492     49.908256606750854
H      50.179286632581480     48.571473753833025     50.462604052407023
H      49.970733578090766     49.326437514106992     49.535220025986526
H      49.725967956545439     50.981280001034946     48.669475013651059
H      48.379907989923367     51.012738386056341     49.121368435880605
H      48.729960875998380     50.250888177152667     48.309881053465858
H      49.873092487129760     48.793442005977553     49.220198247850306
H      48.882474085880197     51.409076137132374     48.380378472337334
H      49.823487329282301     49.485041490080043     48.808344168546171
H      49.791333251074583     48.322019018143166     50.258400004272829
H      49.177185344021851     51.037167349681212     50.925522001990728
H      48.284476872593380     50.467290517634567     50.571484623870468
H      48.664258689062670     49.707701260724889     50.144218605874052
H      49.886613271232228     50.409056604784546     50.896800262712716
H      48.036938444161237     50.985035345760984     51.016522109552874
H      48.314883826300409     49.716177944176934     49.522306402930241
H      48.875703169531683     49.770497830043858     49.467821079720743
H      50.218974218188528     50.407172794747574     50.437902932190028
H      49.356002287810888     49.203103734097823     49.811230526487591
H      50.382797599804448     48.831124486010772     51.045936021465401
H      50.757495071882616     49.011747974843317     50.025271862936478
H      48.636100535475769     50.396770759669863     51.479395338609351
H      48.429450460104604     50.635932847445659     48.463750667585188
H      50.504629727682328     48.103289418252565     49.929099559186326
H      47.892986261904547     51.552467460167080     50.548806918625516
H      50.604868303382339     49.537744342209358     49.354589902671620
