38
lj38_benchmark
H      50.000000000000000     50.000000000000000     50.000000000000000
H      50.634493784141405     50.307544752423006     50.182614143263407
H      50.116644423796465     50.430775432666493     50.391939057358208
H      50.945922896456452     49.802006675082154     50.134662533173397
H      49.705311214062348     49.641461301112372     50.380900336490953
H      50.480872767955873     50.095121763343364     49.586237246098875
H      49.371350824477695     49.798176467313240     49.542065721474003
H      49.043387197486503     50.335103962737932     49.357297113682215
H      48.861068027891001     49.833258331464691     49.483996456237229
H      49.361677808368292     49.118391833523503     49.971719425386958
H      51.181897083218125     50.580776989503391     50.294628198809448
H      50.578171421416009     49.618791849074960     50.642513524511095
H      51.268221118409244     49.249626266443506     50.576281909918670
H      50.461854421363071     49.134566689435452     51.049198244120269
H      48.436581048373490     49.598218948412907     49.354039182756722
H      48.918429948580396     49.330966128182553     49.885527760555661
H      51.801454279458298     49.724892984538464     50.245340948980527
H      49.009727175952577     49.587068782116319     50.498057961712462
H      49.865102914045451     50.896608180351315     50.533274758429990
H      49.498714990563073     50.191213755574537     50.137417090415362
H      49.750157813590022     48.564438047080465     50.156817494414881
H      48.897426308138925     49.793442707731600     51.028810898709686
H      51.301257881320211     50.430582105329329     50.965214697367124
H      48.846194647179168     49.115577328841830     50.773801862238763
H      49.560564499044695     48.822034517762532     49.346408074637964
H      49.809130536672988     49.444319194792833     50.858038575136916
H      49.949423772274265     49.325425164700505     51.558143094591550
H      51.752695531954743     49.182455546904777     49.982266751145140
H      49.519665782123120     49.372135316863236     49.144778090571691
H      50.034154121311694     48.482084439558236     50.933602197114354
H      50.700743541958431     49.444372222272236     51.572421595603316
H      50.414483874437238     51.022679991443809     51.036626563223955
H      49.196927533589381     50.638453690686688     50.892691443211262
H      48.264569608567605     50.172992372679374     49.262886552308515
H      50.303090247537490     48.950247226298742     49.369300374374866
H      51.437949929353223     49.654625946405687     49.723528510870445
H      48.745316352164089     50.326936452437636     50.183925042396538
H      48.280272448097591     50.765616827705088     50.095001138377285
