38
lj38_benchmark
H      50.000000000000000     50.000000000000000     50.000000000000000
H      49.829469090021924     49.994847974289755     50.602802699043600
H      49.952915343265467     49.756092329471770     49.275433694275186
H      50.308094328476791     50.198726333996063     49.343370633363044
H      49.496476145602394     49.953067260239472     49.222663178878392
H      49.864162270491704     50.658978221994069     49.475470829802518
H      50.124582765420108     49.542834416888709     50.356724951078107
H      50.771693300249616     50.030531995860187     50.102441787043261
H      50.437938145374751     50.150388060689529     48.600935469226563
H      49.552707773739350     49.503307166206369     50.379674318302477
H      50.613137268113128     49.377334717744326     50.743213077115591
H      50.357989623739911     49.807677950435782     48.018528278572674
H      50.861326675947836     50.316518159660589     49.013796183491273
H      51.279362765663116     49.032516087164964     50.994970085721228
H      49.539320651387797     49.284049645630262     49.890025567812380
H      49.040626754789812     50.535638844222944     48.951774579044546
H      50.218233487328995     50.257462986869861     50.398871799176277
H      51.066622380649974     49.031274237491616     51.493120086677848
H      51.431682772045278     48.587218426263718     51.603529191932495
H      50.487427103056760     49.624183444022556     49.068075545154251
H      49.864482345030495     50.605822291412487     48.290038019375224
H      51.708951952389683     48.073819882148157     51.268589083110534
H      51.215740837497904     50.135596404463342     48.495369090786198
H      51.725061557758011     50.000393180010754     48.210760483535516
H      51.583903684300175     47.778237537416345     51.988911859027873
H      51.283174237700507     49.510882069881426     51.748924626109030
H      51.554568077122887     47.105707108025825     51.698568885169152
H      49.871382769339718     50.068736965189224     48.222331302710558
H      49.817166043674504     50.930348113161216     48.693955613034703
H      51.206338951814224     49.812104738148676     49.495357209372088
H      51.906552337830043     47.366809685025700     52.227443737740323
H      50.186586374737047     51.292738007538226     49.750873381648660
H      51.400405255989007     50.290930334910641     49.594641539301527
H      50.839887099371992     49.649305418595361     48.383695295375809
H      51.999264740214038     47.865464312631403     52.503216916920330
H      50.200662690813751     50.728648074996954     49.061679479044521
H      52.426840275489873     48.439097234209115     51.260939489743294
H      51.741154553962247     48.822989202736665     52.157972589313673
