38
lj38_benchmark
H      50.000000000000000     50.000000000000000     50.000000000000000
H      50.513329648370984     50.182691393584705     49.500097321546107
H      49.539365420081843     50.298374578965465     49.650014949843268
H      50.443976506481647     50.419578598467432     50.366904251714729
H      50.912385232483487     50.540832304834524     50.559040417262565
H      51.011266749818645     51.287288488979712     50.714388841077522
H      50.105671603773743     50.702638219460461     49.252594311885460
H      51.507401344035728     51.437150518338214     50.905284519529346
H      50.951516921729208     50.456155739249191     51.148628648420420
H      51.665628977044790     52.118994757694331     51.182562999285885
H      51.796349343795399     51.260457013963439     50.475280575328611
H      51.095681159308718     50.271504250323773     50.006013684646355
H      50.586978711058855     49.779607329881600     50.825745963214210
H      50.871303932371021     51.780257537675112     50.763324476935267
H      49.294963332745553     50.528076078648276     49.204390793120801
H      48.962738068550877     50.500304114347109     49.800770895236916
H      52.140658475741724     52.493826485538570     50.857600216543695
H      50.995942760965846     52.151387601107132     50.411584323659810
H      51.624993985081609     52.110696353150153     50.083024180696007
H      49.954846727339302     50.110649335795699     48.819809660130218
H      50.269468807372625     51.368198313491298     48.888114602660330
H      50.517124043531666     50.160112531099159     48.396387688630888
H      48.310784572938978     50.214044759349392     49.766957564524468
H      51.578137211736347     53.023330159675169     50.744392352151642
H      51.666813912144846     52.319368981440036     49.589036912845316
H      50.021877973231504     52.037263473546950     48.561625637551820
H      50.113862526880482     49.503027192663595     49.169356849657305
H      49.662281381765062     51.146637460968570     48.701362031358734
H      51.198184875614579     52.951634867373734     50.222276902413086
H      51.291323360182837     52.679418328989762     51.346283948258616
H      49.970085481739645     50.800822174193428     50.885968991521402
H      49.965676365552731     50.002708388006106     50.707524744520541
H      50.975299356026156     51.572169766368063     51.494828588561845
H      50.781882066984821     52.818654105167091     51.473036972579216
H      49.494495345288293     51.582029908042244     48.197286153275492
H      51.096060886096517     52.361297970303767     51.997862562228484
H      52.044957021496103     52.092351050769309     48.955046224200807
H      51.176433568136147     49.989476173156831     47.976405370519473
