38
lj38_benchmark
H      50.000000000000000     50.000000000000000     50.000000000000000
H      49.715546350017924     49.951306778654043     49.536461970880275
H      49.023254102842060     50.106860485497840     49.324267911429992
H      49.846541581912248     50.113509385367706     50.734876502746381
H      49.595683151105483     50.793561298406694     51.021300868367987
H      48.552407663979565     50.454882983843660     49.261436699214016
H      48.362678993795335     50.329157634520328     48.521923287448708
H      49.628157487496217     49.650963482784100     50.403922691246052
H      47.709803543953257     50.606692828057191     48.660722697877858
H      49.516716029211672     50.745963225112845     51.580652810200846
H      48.123819710895361     50.047238171394838     47.852696064819654
H      49.663325014553195     49.093749476761985     50.716437489718459
H      49.508594377379829     48.936390682209527     51.453372337992839
H      48.874315029362549     50.957507939502335     51.301356446885194
H      47.384661049906789     49.897560198158722     48.810400501710134
H      49.312030382140726     50.488231310238049     49.839494594535054
H      47.543206132908011     49.366322399028910     48.876285799836616
H      49.317899208280721     50.515976953616885     52.021060358545135
H      50.067576432202671     49.554007095505938     49.772586994315610
H      49.725452552441048     50.613948983695259     52.628954736302276
H      50.287317345213182     50.982413770442044     52.705162110607894
H      48.731270467344665     50.340815987137525     51.598383135550648
H      49.994364642779132     48.909760944722116     49.752316061657275
H      47.557853162897473     51.291768481901421     49.001077303598954
H      47.436492102406774     48.798083512185478     49.003120896424811
H      50.212507274302737     49.309930859120030     51.560447688428148
H      50.670922144984203     50.289596074168642     49.938055504480495
H      49.722289283079299     49.604723728728608     51.549081942229833
H      50.967264552436184     50.872733264641013     52.502854322990487
H      50.867454963481556     51.456468765875130     53.002692512275793
H      49.513741788697914     50.210164375002826     52.975056656745480
H      49.225567628275208     50.255261396165324     51.573554686192033
H      49.798506582099620     49.851189931419171     49.043416021838205
H      50.404113126364273     49.283548820114952     49.491294363322410
H      46.977477204723748     48.925536430575491     48.820535803819013
H      49.092254594411841     49.921483344882738     52.633217841232721
H      50.178474294156395     50.133705086660910     48.764872603564832
H      47.439504683570910     49.851295893363329     47.689331034972852
