38
lj38_benchmark
H      50.000000000000000     50.000000000000000     50.000000000000000
H      49.794694673377670     49.955177693173070     50.621275870298142
H      50.523494372104444     49.886835530746943     49.818781653433831
H      51.189012106013926     50.113551755725013     50.040962336962323
H      49.785939509602265     50.249961680683782     49.460104845109846
H      50.731050179306578     49.513986744698087     49.338396847743418
H      51.442354614673818     49.938647476734531     50.550233808539971
H      49.742975273079189     49.343538899952748     50.321034148453904
H      49.396698532247839     49.519160746363156     49.706241945706573
H      48.905916058858530     50.027060242339523     49.567507592157796
H      51.338446582612661     49.377179554438456     50.260348441705311
H      50.161846047133274     49.621222191279905     48.877704481993526
H      48.227670695845255     50.037345685702235     49.730525843835110
H      50.316786982532491     49.654866143706890     50.247419514218045
H      50.090875929776949     50.057187093978101     48.269243104734592
H      50.604018297619795     49.716389229982184     48.072799194354857
H      51.187066830175496     49.898397872435957     49.104863767356754
H      48.214317995632747     50.559759393088555     50.198356119173837
H      49.353246994393501     48.703058933082545     50.200500004425869
H      49.628216467509873     49.640214477745047     48.938046225264713
H      49.007117538666051     49.195427664208268     49.783653471196104
H      49.566314423524460     50.457764382042697     50.833220952406194
H      49.119822258749288     50.014576082430906     50.998970446218273
H      51.363472915441847     48.913673070006432     50.755823820707384
H      49.237092214102717     49.542927193785573     51.407066996009632
H      50.534637842522685     50.393111547734676     49.293979637087865
H      48.625527520987760     50.991190446906657     50.641193048074825
H      49.529762420068892     48.710426502633375     50.972599479659046
H      50.905483962059364     49.891766362270651     47.403348220562563
H      48.472644834849483     51.245777406937542     51.162061067528754
H      49.093963113170766     48.245556060746637     50.654060230010742
H      48.659170254247783     50.035580631430591     51.642332200687896
H      49.781152146107431     49.686940277292521     47.957234617919163
H      49.109443796343392     48.409769832659990     51.352333977144852
H      50.375483769661372     50.311357877599391     47.288188135371875
H      49.346989385117887     49.233773937814576     47.787526156429337
H      50.832018065039158     51.008396482508417     49.716370520442901
H      51.936842761750000     49.805304992117186     50.444787066333959
