38
lj38_benchmark
H      50.000000000000000     50.000000000000000     50.000000000000000
H      49.994375863768674     50.105861373161950     50.755686527381613
H      50.512031347087571     50.202268001088903     51.253551408818005
H      51.230317742496787     50.259569174046362     51.526153324083637
H      51.713514893131993     49.709730721434482     51.384868453093723
H      51.859233871788476     49.855409639252066     50.750307534536830
H      49.954904192538891     50.630436240291957     51.392448381767011
H      51.113123995256203     50.260300324176370     52.263260392093144
H      51.914974561968577     49.161675983048255     51.911485844333058
H      49.502005160469707     50.017737177994853     50.007888613253158
H      50.483200081110049     50.649480504988894     50.997597502762375
H      50.265147720081217     49.422692449599296     49.762090360548846
H      50.340156642535064     48.876734484821299     50.029686142224215
H      52.270344589436775     50.337419411571361     50.738416402070605
H      51.235518899414771     49.306701395157901     52.164616038748918
H      49.549696718422226     50.235178728523515     51.272781106829427
H      49.635370704563599     51.230720352207697     51.227714539553808
H      52.343855001760637     49.299874284526894     50.881656934370945
H      50.389217831021384     48.277959302067067     50.361657494757573
H      48.981948945648291     51.537936788137955     51.219456217266767
H      50.031133612893044     49.038485052023823     49.347415211660497
H      50.688940392707330     49.481478403621630     51.455647031889029
H      49.759953727599289     49.530683592656331     50.111758332810794
H      50.650570846697839     49.976337076129738     49.774826029861956
H      52.084881789301107     48.598904100366816     50.959548015344055
H      49.382380192363890     48.727054133115196     49.582235439477877
H      50.352845680589184     48.684389736296922     50.947844041435637
H      50.159850591817872     50.636696876942324     50.547225752668147
H      49.714862395794192     49.196906987011545     50.732561508245134
H      50.492495213332298     50.050630273543028     50.393745365459317
H      49.072983183287917     48.582228384629040     49.190410361415097
H      51.790924426224734     50.402799757011820     52.052667946674902
H      50.245130494201796     49.488482654410028     52.092179642331978
H      51.521052408271444     51.020379271030912     52.152828018855224
H      49.228776632170550     50.921678303243503     51.669220171115612
H      49.460103009634672     48.882823234496399     48.962696183784502
H      51.211472895048402     50.219858991504928     50.226306391343797
H      52.169890281579505     51.274694682641396     52.004702808307663
