38
lj38_benchmark
H      50.000000000000000     50.000000000000000     50.000000000000000
H      49.610282383023232     50.113105038324044     50.625235534103197
H      49.660000818712433     50.335356701666917     49.640713922279318
H      49.656285223430949     50.892590510379350     50.810644788409839
H      49.614937598790739     50.697651109529723     50.231342440690916
H      50.784383000785439     50.087922628781008     49.918276602483331
H      49.401094569197049     51.434495690121821     49.988453653786799
H      49.926180402687962     50.507991685853732     51.047428456143379
H      50.133578954722005     49.447118157241711     50.532753729688956
H      49.114505323424304     50.441057766981686     49.484790868692990
H      48.572546895790204     50.153166532822461     49.611484940353463
H      51.015867413540278     49.892433157052174     50.415935829857617
H      49.699952366717653     51.451585999686984     51.347447572112294
H      50.384099255422541     50.455148075195609     50.265656735847706
H      50.262461505531952     50.379395207462991     51.412135737471679
H      49.937502938665645     51.768717675122467     49.842077082768562
H      51.258005478119550     50.488338287323145     49.513771273708933
H      50.471569638179986     51.948750114541205     49.312434612483635
H      49.824674798662315     48.951320229856670     50.911875742293674
H      50.994290688668819     49.814668076922437     49.333021626960253
H      49.419400152972585     49.073501203410558     50.597998167029729
H      50.788888204637750     49.476688071975857     48.959186416493388
H      49.357183155520225     48.815146585839791     51.049878257553466
H      50.983014884508520     52.459892659785417     49.334789511167067
H      50.706318707616248     52.021010633381010     48.745432914888504
H      48.662082808859424     49.913302120561099     49.165359181093088
H      50.461796703268263     52.575224787781863     49.825749587454652
H      51.261402486323647     49.763899768677945     48.422844419301015
H      49.102822888954705     51.796152047730757     49.641071381639975
H      50.057516438834732     50.130052723790975     49.352473801430932
H      50.196080182555789     49.069961959519681     49.888628074805702
H      49.976522697445418     51.964817070591337     48.795910168377112
H      49.886295588065437     52.567147185941550     49.944040800027906
H      51.271036056963553     49.324773093921550     47.811575721417839
H      49.919766723871312     51.382195502053996     48.571341325874229
H      49.758441227697205     52.377276661834436     48.432430171832863
H      50.578264554379018     52.038086151643313     50.272510885360141
H      49.250964948543306     52.366927511565578     48.725738833574738
