38
lj38_benchmark
H      50.000000000000000     50.000000000000000     50.000000000000000
H      49.819085410276536     49.942558557549852     50.694061947786651
H      49.920433144070117     50.661910020993730     49.575295969243705
H      49.451947536839427     50.069704884268241     50.375442110389265
H      48.766515434995597     49.782910586150656     50.286573607251292
H      50.180941798597345     49.899493901951722     51.172163570435728
H      50.240059339775755     49.433997509533455     50.888814936234866
H      48.311333909772628     49.755019146670762     49.883457892087733
H      50.182157720555480     49.633533296833519     49.480318105077345
H      47.608578554615690     49.424928426171839     49.709065070844382
H      50.841869779146464     49.868420944431492     49.669370544542083
H      50.747148708355205     49.591210162175685     51.029736002997822
H      49.356679351420766     49.824946177993382     51.145212803379614
H      51.010835857895579     49.359814462275558     49.254741874832838
H      47.692104467768125     49.839308577914352     50.116419190251548
H      48.934486665592146     49.390668278722082     49.994950593573520
H      47.697147090186320     48.822636346640358     49.233944666060893
H      50.027878834989082     50.604828768483955     50.974726135477766
H      49.875041156125540     48.881599946551773     50.884008762492371
H      49.758846536782684     49.278732708786684     50.208801738591390
H      47.379706839979164     48.953577559916710     50.311942498706841
H      49.032484380083467     49.385943402872897     50.673782280394960
H      49.461123347341491     50.845240606563593     50.359118124563722
H      48.415144739822921     49.558457884219955     51.011238312265085
H      47.110463889616156     49.664481748531820     49.303643848479645
H      49.674936726148367     50.722611123187463     48.970896652005578
H      50.172557063441175     48.902514595471224     50.021138677223639
H      47.670900246473643     50.135419653810068     49.106728089595116
H      50.770255887609530     50.027935529271616     51.557675598554269
H      49.520022319305561     50.246614180330567     48.593440011158940
H      50.858329192003552     49.080793148500767     49.977328585423109
H      51.314889238750865     49.351754593862339     48.739673532711443
H      51.484027094476723     49.844250063356952     48.185518744251674
H      48.050305193835257     49.652147272556107     51.662114085172988
H      47.769488474834674     48.399772798013366     48.679180768865024
H      47.904604022947602     49.944201945044057     52.149923025123712
H      49.986795672114781     49.058871878183666     51.401451793075054
H      48.618442647611481     49.139229025137972     51.885719419652233
