38
lj38_benchmark
H      50.000000000000000     50.000000000000000     50.000000000000000
H      49.907328236100739     50.365518577045194     49.296213977225989
H      50.169222527188744     49.755918073423025     49.517457309445653
H      49.739261468336700     50.564124803636588     49.762851944104277
H      50.448471058487989     50.579200073931524     49.838331586643747
H      50.384048958441738     51.166739637449759     49.379479374366731
H      50.352105338539602     50.758172529236603     49.044977750857605
H      50.711674043886845     50.044373286201491     49.745247858834226
H      49.334395191885243     50.430211312641326     49.123817336674676
H      50.412482870008425     51.673327410009648     49.604863629180720
H      51.130275583212523     50.529031400672658     49.442730538178196
H      51.262918208843836     51.057003085043796     49.266696027865180
H      50.549680236988607     50.457890339925669     48.345445579783132
H      49.254304082844335     51.125399412668195     49.799269412877031
H      50.871638583118049     51.015588891344493     48.191618901086947
H      48.689590437977024     50.228983059782912     49.256423814413210
H      49.773077468981505     49.498858618497195     49.972572966748089
H      50.884603085744239     51.480006296525083     49.732445608135933
H      49.648223697155785     50.919201737956492     50.189454627116646
H      50.087880316716586     50.333144182485853     48.751523986839445
H      49.934999810273872     51.014837008672565     48.807929153318547
H      49.235916671043526     49.719050624380159     49.772950936318765
H      50.189394684046150     51.163471925518309     48.089100397665078
H      51.396069902779551     50.865220933120057     49.953342580616237
H      48.885317800409410     50.118507250162168     50.071356163377423
H      51.284723638686138     52.016694098969630     49.445585389135481
H      51.581604280138933     50.792514459497639     48.118228613073200
H      50.707989317006025     49.644892467928997     50.220471038623266
H      51.174207207972714     49.584810667477164     49.442250173844876
H      50.847791697843476     51.541833900666433     47.972093205843265
H      49.220417058861450     51.543056174906141     49.193050154996925
H      50.873908468182705     51.492487825521771     48.578719190905694
H      49.728888844944706     51.196414764223491     48.304605269500669
H      48.710236971438405     49.623233564451411     49.960735571111591
H      49.905408688957991     51.500178273516383     49.237844757247800
H      51.160816841693261     51.804683030622428     47.575332296739312
H      51.285287840626914     52.468561372403556     47.546251357946950
H      50.499304131622985     52.033090027458435     48.802015674536840
