38
lj38_benchmark
H      50.000000000000000     50.000000000000000     50.000000000000000
H      49.667738557176904     49.934482733829071     50.363317807592999
H      49.494098236971546     49.337720039508461     50.845160008929490
H      49.047940837635046     49.804654989649315     50.756746546355728
H      48.556782157780106     49.871021583061946     50.880895206794655
H      50.466863465607837     49.874457667147006     50.412048738711000
H      50.336566965777763     49.372039356292248     50.431685597728361
H      50.888574782160170     49.399452750492522     50.121582721791427
H      51.053843011360939     48.809122984246194     50.542880006376315
H      50.195913370061170     49.525333953182944     49.475188232536262
H      50.705278765739358     48.572507868787142     50.025360240847810
H      49.643714219597889     49.035434731120816     49.724043217094028
H      50.483803310547863     50.254476752526571     49.844456417597542
H      50.621538948668778     50.426806821372054     50.829364997972810
H      50.485755337960313     49.426967838860570     49.036684876101603
H      49.081828617889350     50.272432068369817     51.162365631900592
H      51.207542971995608     50.749508787992177     50.749480849564442
H      51.130409950630714     51.114761786456192     51.093649998519062
H      48.959240440796464     49.067657728393847     49.620581352454266
H      48.675034366291356     49.795427004306092     51.608982170212471
H      50.139162085767325     48.933647602249579     49.391849191901706
H      49.490301218429948     49.802323411252374     51.400748248671874
H      50.875917906738451     50.033290130539314     51.205653828227042
H      49.756113163343123     49.949844759358136     50.975418990790679
H      50.815846768617739     49.661392738864805     51.734966088817487
H      50.851925645608105     51.269231656019286     51.763335867671429
H      50.447323535522855     47.947242178257397     49.722557433246749
H      51.107003198723000     50.478307411919040     49.546582331563854
H      51.371427077260698     50.780268922866455     51.989686276908081
H      48.793286280473858     49.243691428317646     51.927578689317237
H      49.134993397620441     48.467262413241080     49.814572112810225
H      48.732500522654661     48.944427798399779     48.878618088313075
H      48.706975824702802     49.129913059058346     51.238093202881487
H      48.835041223985705     50.095837149406286     50.298214361199904
H      48.499831631351952     50.361859833656808     49.626690028906935
H      51.592753532656950     48.906996496410848     50.222916906765967
H      50.913154950308574     49.027047550434034     51.321779552000926
H      49.607948333515779     48.531197204038179     49.123489692076703
