38
lj38_benchmark
H      50.000000000000000     50.000000000000000     50.000000000000000
H      49.776343486398382     49.335551327653910     50.017350912224792
H      49.696986688041143     50.391470892579875     49.495535847689645
H      49.252558061973744     49.937557527030911     49.995810583912139
H      50.285135730318842     49.914785359488590     50.502522247761028
H      50.442557340156036     50.611174928999745     49.321029167746708
H      49.972517929847434     50.572370523179693     50.343514881447383
H      49.413453763292551     49.917256541647603     49.149093483887192
H      48.925614709908778     50.200503714025942     50.441868324410287
H      49.201678965431555     50.862637629129260     49.194360278100788
H      48.657255629281885     50.511476782811052     48.977664036265679
H      49.840115380968918     50.564653716344260     50.823245810145650
H      48.562368808935304     50.674591481931422     48.286183783106154
H      48.729245668179750     51.015078247363306     48.988608529754615
H      50.026120226470027     49.937762033941489     49.093776554884620
H      50.137928104025228     49.445958069390038     49.003721384123914
H      50.513655825836359     49.781718891568126     50.986706817526667
H      50.407734788326046     49.798251221476214     48.398418871126452
H      48.500421140898659     50.088394010001075     49.985758465425562
H      49.692072589685260     49.437315423086240     50.751614383043339
H      49.042748537818255     50.096682595870689     50.925946405929906
H      50.339725021546357     50.328352146982205     50.841732704380874
H      49.811451575784261     51.031839822065955     51.179928498905440
H      50.256036066096939     51.138726771938842     50.159786285705636
H      49.542908128838796     50.764098111340296     51.648844827167387
H      49.127949522313621     50.131031250216239     48.123922502318230
H      49.921185195072610     51.786894503968576     50.983546265883881
H      49.269751941952691     50.877615131115490     50.150753716639755
H      49.803147248629841     49.503751758472909     48.104774890308470
H      47.953054317788265     50.090792445618533     49.811049310429979
H      50.890380336630642     50.181802676029854     51.310896931352936
H      50.847274242481632     50.208715103584872     48.973407137149835
H      48.976372573997260     50.283085699516008     49.673554391454047
H      50.499667765950932     49.675521888553163     51.795492215489141
H      49.638877264057847     51.226636277693942     50.004020034759861
H      48.266938485451917     50.503144513468506     49.814221009017231
H      50.387045313769178     52.313289017389174     50.649146100642326
H      48.604975075710399     50.175634365000462     48.258304440263096
