38
lj38_benchmark
H      50.000000000000000     50.000000000000000     50.000000000000000
H      49.650414294597923     50.700277872858550     50.133086573243197
H      50.078523137246819     49.915886574722450     49.269070355890413
H      50.543548071728949     50.232231642299475     50.115903105383993
H      49.220728762778791     50.379403943919662     50.345050675130999
H      50.437578852970589     50.481552034930274     49.364033259230510
H      50.513240762431586     50.153343723510041     48.656182601127824
H      49.709392027244853     50.635831604807990     50.804015759550339
H      50.094030969970248     49.551054071577056     48.443542271047285
H      49.153093875531837     49.800076572058970     49.896329125296958
H      50.212456386593750     51.143306063515098     49.324594672054594
H      49.833123857017682     51.158493636141401     49.808676533588965
H      49.720176017352493     49.860551799201588     47.867348129258602
H      49.619493865116986     51.539737756935189     49.182449703464528
H      51.191560676444254     49.977358459480953     50.133206754810068
H      49.714364510566732     49.717780236972978     50.474756438352081
H      49.202496168141131     50.317365881210762     49.315139293794687
H      49.557287525171169     49.379114279876447     47.432581734819507
H      50.193580183266519     50.982247919583941     51.277976193620859
H      50.138765210376889     49.629480470164673     47.306862613695699
H      49.655487126208030     50.546955420837818     51.353033407031106
H      50.344645882189212     49.495932417979880     49.879680220703968
H      49.340115544844636     49.140740779333171     50.251788944144394
H      48.731832568842592     50.858128105208323     49.581444809873076
H      50.811002003911561     50.274168268017114     50.546010628886968
H      48.972056507233994     49.603447063963500     50.509047364616926
H      49.225908124772076     50.445231761738988     47.737059918799773
H      49.194405241126482     48.803718041465785     47.692804847586729
H      50.828112049885696     49.907159841430605     49.294974464015262
H      49.090308922274673     48.236590256576925     47.912771438143054
H      50.399020086900741     49.774403418887879     46.819971106318818
H      50.427872173922218     51.672051515543416     48.810850020852193
H      49.658981407901948     47.816566663108446     48.075348447392216
H      50.257492861243485     51.099233823431547     48.744544985955258
H      49.396766128205726     51.074204261840144     50.715052567724179
H      49.618374037998507     48.784329623309986     46.986741904253968
H      51.422687419974508     49.627008114589259     49.801018677863333
H      48.439716541672595     50.468991660920686     47.736033957483841
