38
lj38_benchmark
H      50.000000000000000     50.000000000000000     50.000000000000000
H      50.196296358354914     49.938728467327820     49.488438646318315
H      50.294113497224366     50.057759800445332     50.641668828401869
H      49.819988927261797     49.368568907401155     50.078630051325675
H      50.571207697649015     49.751145364918600     50.057961891489619
H      49.561841389589212     50.088831465511163     49.309143737161669
H      49.451250696208653     48.986728040641367     50.057761537079436
H      50.870540571768480     49.922975080616027     50.960765897324720
H      50.487377000923757     49.230367643964875     49.569737586053613
H      51.088191450559357     49.087665531314236     49.590527632147001
H      50.366039245616719     48.807577297456170     49.849581326217425
H      51.364911113925700     50.146543098465649     50.592585926688898
H      51.984675090644956     49.972631900499060     50.802968375150684
H      51.301970075873434     49.595704327373227     50.649256862267094
H      50.470499010380948     50.384470759385344     49.186432860951626
H      51.545025965895448     49.635111833811919     51.232202313520936
H      49.184893583490712     48.274625787090180     49.939648537213067
H      49.329199640310478     49.662950865016796     50.322263906178918
H      52.054032882570461     50.115436997278721     50.304377831698972
H      49.895841351418717     50.351468763123805     49.596640416659682
H      48.569636678915096     49.496338668663164     50.329464448007180
H      48.398898337092447     50.144549118439649     50.696552850765492
H      51.618544259241112     48.914624999865637     49.963772008717235
H      48.389896804277498     49.717379985432984     49.668078131925704
H      50.275504709536705     48.713378124486006     50.565491228614853
H      50.815980921733839     50.388123854868404     48.618909809500103
H      51.625108293784805     50.391318978852205     51.390175996562355
H      50.141309100829361     48.978063709577810     51.083829489410633
H      48.021082243539055     50.634539876025443     51.147790696528013
H      47.487747547032612     50.757884128859345     51.219561771617805
H      48.694688600710997     48.375028002690463     49.787688878626085
H      50.015197507986144     48.091509165097015     50.788594652965372
H      50.812249562256902     48.609803846852614     51.126227328397277
H      48.483576964247199     48.455838068276819     49.280197419455867
H      51.324381801053434     50.041339669917598     51.830605869294438
H      51.840153950925405     48.969975300672310     50.700343981890988
H      49.971592026964643     48.489723986411683     51.190143591737858
H      52.436512985349850     48.953366181240106     50.787813758247296
