38
lj38_benchmark
H      50.000000000000000     50.000000000000000     50.000000000000000
H      50.295488360535757     50.141004517168682     50.466854725751084
H      50.827114359506687     49.948421134748465     50.072207335639995
H      50.411657150885191     49.292173279759481     50.077226062294400
H      50.699192282856465     48.853566420421629     50.686787904448160
H      50.769811947499477     48.409331124328673     51.197483172287519
H      49.820125170796231     49.793556880952387     50.767588190277344
H      51.084253615178646     49.127487911138218     49.754579450453967
H      50.321126062732333     50.757417068243136     50.854399212878434
H      49.551582392109346     50.074901663068800     50.446078453348662
H      50.305051471667419     48.244266947424180     51.509228295605752
H      51.532239251702528     49.940674925152720     49.737543494124623
H      50.140813250492755     49.880652175357802     49.476322344614424
H      49.669670949592209     50.333551775355772     49.730674699303322
H      48.882451205345461     50.119234877124242     50.688999325493889
H      51.152239954021468     50.231064846105909     50.512891180162498
H      50.088618300847067     48.735722601795239     49.757985607773620
H      51.533651759254660     49.933130859283182     50.901531627233716
H      51.053529186524763     48.649141876624654     49.588410989866617
H      49.402826433184750     49.784778113977701     49.617726715506450
H      50.550240418930983     49.582763706834399     50.969443269043794
H      50.486560363791860     50.189392661216743     49.655917509718492
H      49.804517337189530     48.383057548752880     50.371942858178116
H      50.801002964192506     50.903288911346266     50.879364882953844
H      50.422250834605990     49.157960407654521     51.324334113989210
H      50.986399705598750     50.741272673745208     51.496190699236102
H      48.352653622206567     49.996221689219176     50.921751425935156
H      50.611445827048769     50.675464840250065     49.435953926399925
H      51.689162243711849     50.703185410267523     51.638624935779710
H      51.498322331714043     49.773720779336699     51.544836590982349
H      50.605500798619673     50.124522155880719     48.992559462800671
H      49.850366356884543     50.983179634242759     51.064476533456087
H      50.020010447678509     51.098131457213050     50.455168630490348
H      49.426764879475350     48.433992116456935     49.660510594111884
H      51.581297725713476     49.363262136160536     50.585251580241874
H      51.613315664153333     48.243074675626843     49.226420026716347
H      50.888038910078336     51.251456845608061     49.919641051695969
H      49.160064645376423     48.754474317324373     49.207027776788706
