38
lj38_benchmark
H      50.000000000000000     50.000000000000000     50.000000000000000
H      50.702596821670241     50.133769352956591     49.747034241978497
H      49.649140491565134     49.575643045353495     50.274191396611243
H      49.048564854125217     49.591018215627166     50.218106269060357
H      51.254738420990279     50.157445305413574     49.854359898587148
H      51.550792174265595     49.615919564422185     49.501619075913794
H      49.708726339066999     49.298151682792742     49.690616754131895
H      51.027015667021857     49.558449191154118     49.452035048739518
H      50.128419680215472     50.300793658858140     49.560345311208621
H      49.348399710707625     49.066977915666143     49.359892362076678
H      49.478340898278773     49.389525372650311     50.702248775674924
H      48.678986477389543     50.173924996145416     50.504930178768056
H      49.301776411115874     48.794686547718626     50.501066491243357
H      48.959274887529105     50.300482677656319     51.084422063672015
H      51.289635346557588     50.150002362461535     49.339701577167759
H      48.818432894294943     48.347885144858189     50.208268529556605
H      48.484889770272069     50.774149224604635     50.762668220000165
H      50.155631977901798     50.741537547734318     50.250235539196431
H      49.008257312789056     48.405961060266797     49.685442485733269
H      49.011675590949423     48.937492107288001     49.899142175780192
H      48.674103292354978     50.237745798164987     49.824229106162406
H      50.702265843198553     49.923665463047236     49.036184013107842
H      49.661420501457769     48.496703991297231     51.046457144331804
H      49.190765412207490     50.781114890140863     50.104122947990589
H      49.514481339445460     49.840046779176440     51.306873391849209
H      49.053084143274873     49.928582432646898     49.291043425538561
H      49.750857677710094     50.462331082832108     51.304677234652225
H      49.708940373338024     48.584992989344506     49.993072231361062
H      49.858124087801350     51.015049940425691     49.347738787622603
H      50.500276946432372     51.398910327453116     50.009774968995153
H      49.146623282825104     49.396639015199703     51.271193281352630
H      50.291297312998061     51.263813373291221     49.302529665420870
H      50.251289516508848     49.385124246289351     50.413020822720732
H      49.071551233308952     49.851033947560651     51.666388220666995
H      50.168113001515223     49.169385270566210     50.988343895177998
H      48.972697588023351     51.072670339236886     49.629949906811056
H      48.549707598971040     49.583870596187161     50.844832084525201
H      49.607031715903382     49.896041320599466     52.165110376058159
