38
lj38_benchmark
H      50.000000000000000     50.000000000000000     50.000000000000000
H      49.814811059917609     50.339507819073766     50.334418175536122
H      49.871319298804380     50.882275287944978     50.698582167287178
H      49.424805452391851     50.432238350704672     49.662235427811453
H      49.252747244573321     49.701045166887560     49.634226342673131
H      48.743187287599469     49.392217520558461     49.939232948472828
H      49.484064672459596     49.947330661519523     48.938454814855604
H      48.128075389167478     49.506750728971028     49.951942575727280
H      48.729819386748140     49.803717171850153     50.382034496827572
H      48.733337653611621     49.783247081476283     51.013810427724316
H      48.026896678804469     49.942917242816158     49.477888428245301
H      47.813345393758425     49.907445493219385     48.794625267504586
H      49.242957004922474     49.364682780032361     48.901988510726248
H      49.179699083883037     50.978365513063949     50.726320249727003
H      49.308893303946505     50.634019327371817     51.349898464073398
H      47.543712209769815     50.618258598581122     49.051908279279452
H      47.608042593405628     49.259820918771887     50.033058515621946
H      47.623107663737542     50.735865303833648     48.492013736194416
H      48.672118855383637     49.004900890754826     49.414086070382325
H      48.725127839008024     50.239432014397771     49.819163878282737
H      49.178926631627675     50.085575083403761     51.350302631959842
H      48.034858603475840     50.049751441555266     50.038779575778889
H      48.977029904712793     49.188348064614331     48.232610850549356
H      49.415547721873850     50.030779408527366     50.542979208385169
H      47.283537617035080     50.186791271816681     49.266505518697663
H      46.877124448515161     50.007761511747852     48.672250363401716
H      46.697927945104752     50.493333404849068     49.288502994274879
H      47.927762691777438     51.230295822558546     48.966100596661221
H      47.799535605416153     49.918724089122328     48.113410355323332
H      49.401529930953295     50.472639609537083     48.638737523001240
H      47.216650464208641     49.943806175132359     50.044105156758562
H      47.264494498656894     50.583430938196919     47.895053508885155
H      47.662144704520465     49.343550668404802     48.499747392505618
H      47.858577841747589     48.875435184416602     50.663026600405694
H      50.411629500337924     51.167013080866731     50.930120096079655
H      49.214477298446447     48.689458571794695     48.141142066524630
H      48.480997502947908     50.926270995277015     50.432859780106860
H      49.958567522816509     48.547467417720036     47.878398400093154
