38
lj38_benchmark
H      50.000000000000000     50.000000000000000     50.000000000000000
H      49.943357434090117     50.546767721248131     49.553476977261404
H      50.365380820343063     50.275612719567789     49.396573524584674
H      49.546992322365305     50.791051488598178     49.770104697238239
H      49.817212747976676     51.053521626172824     49.246430065356130
H      50.368960077635883     50.654566780329134     49.913531670999596
H      49.941577529401862     50.955445721905249     50.402721377348797
H      49.668162450923035     50.080054503531088     49.063058313441658
H      50.617437918868418     51.176813179726174     50.398611526693472
H      50.629690525111997     50.653169941014028     50.465847001498872
H      50.969218896439259     50.755624642404428     49.736994754334347
H      49.402110001368875     51.134951758951111     50.488576171678801
H      50.901234883991933     49.925318159524082     50.483303771183792
H      49.754869246255915     51.822553515338527     49.471466190778131
H      51.272486680862102     51.153075473539360     50.549826322555646
H      51.490720809641580     50.714285050475091     49.639730758490145
H      49.516569192460310     50.835305789446814     48.674671558813174
H      49.970461326191817     50.963411308887217     48.407441286256315
H      51.714102562661438     50.628898970733779     50.389823646471775
H      50.098623493882691     50.919727841171820     51.125056307806688
H      51.897455486665841     51.290368677787946     50.046176076194378
H      49.150321807930176     50.473121059693163     48.763978724897953
H      52.386191106140998     51.087976280741209     49.553029457867986
H      50.027990475698680     51.249971461249821     47.700231567881218
H      50.235590359962849     50.341036596538075     50.361344799491739
H      52.382162219512573     51.652848676045068     49.049928705169506
H      51.155301535566217     51.678800903393970     50.242905903041425
H      49.480557116335440     51.033536413814495     51.516180564311348
H      52.964695191176673     51.155275598512048     48.838597430167930
H      51.929567011268212     51.995407098822866     49.045066488046523
H      51.603866773293653     52.185467065401376     48.343499035686747
H      50.618792918573867     51.275995156895647     51.335676267499608
H      50.948105828034642     51.812895104385625     51.755094245978157
H      51.403616676681722     49.944096795938300     50.121171528392551
H      50.298795220797892     51.362025551603566     48.910177739176611
H      50.525682923235266     51.067638190063768     48.343426463532033
H      50.012724780347192     51.582279015263097     48.426943769989009
H      49.518704833054827     51.508050230582285     49.017953640818881
