38
lj38_benchmark
H      50.000000000000000     50.000000000000000     50.000000000000000
H      50.393219656209084     50.161044331769844     50.543739563952492
H      49.700429056392103     49.448094202274142     49.998082502360404
H      50.839789176538822     50.440279098782291     50.766132860157427
H      51.400062055111405     50.358668666513047     51.045123959089345
H      50.717918986575185     50.518905716655297     51.353894358289743
H      49.985884996255962     50.456152784960963     51.088043177214118
H      49.781086927113684     49.968633246207098     49.428414523015675
H      51.257506925181673     49.714887391080779     51.012041875615253
H      49.970542216464786     49.982741072639868     48.904310648560859
H      51.773245481069154     49.154437162933306     51.115073264102904
H      49.369248215134640     50.690843599951599     51.519115081521548
H      50.073667448838172     49.752544925351003     51.156022210578023
H      51.950997103056118     50.537822905778697     51.230348727879573
H      51.382765352132836     48.819192300737157     50.882149106219828
H      50.935301406278228     49.155442900562349     50.350982011079601
H      49.879339132673415     49.193819727110601     50.712824791600042
H      50.651708464827458     50.943491514288546     50.703753340364848
H      51.144924149795500     48.839568436739015     51.444180387322874
H      50.663107662894838     49.767057728854930     51.158854646754236
H      49.236668668780950     48.944965189272637     49.671305185677809
H      50.206870594600311     51.501328986784095     50.742585826666932
H      49.311687725691066     49.125097951715084     48.958789754876911
H      51.047797384522973     49.487733597306068     51.706160367694025
H      48.564658266152335     49.117224344290356     49.412974431117171
H      52.389673416854961     48.806539537973094     51.471982169098901
H      50.196792069668589     50.123005118191784     51.593616444962905
H      48.141373498768843     48.940467586981768     49.738173546536970
H      51.887836484641156     49.760034001650730     51.210207468210236
H      50.955727777547935     51.319478061353024     50.574730866386020
H      49.726236360067212     50.329668636956626     48.234992741591910
H      52.902968456583501     48.684606822591242     52.065851106985747
H      52.436959679437457     50.818933401124205     50.824892969148209
H      50.760498818637686     48.905344826676512     50.818968292985652
H      51.272521017970483     49.763217514096823     50.189920097513642
H      51.432691354358511     51.615727176865029     51.143207283042997
H      51.121787113465203     49.593916647116458     52.285512442516719
H      53.092242830737426     49.384556497353245     51.974561348242418
