38
lj38_benchmark
H      50.000000000000000     50.000000000000000     50.000000000000000
H      49.911579369675323     50.538491863849210     49.827467077896507
H      50.212471972777344     51.038053081880363     49.275853137396133
H      49.656594860429792     50.612331872233980     49.313623791619541
H      49.618054798730718     49.993367940987909     49.157399798631658
H      49.551177903075171     49.897187635406354     48.566949275268776
H      49.518737778314453     50.996146262109193     49.885138148892516
H      49.363680484652292     50.700839901440986     50.408718593883272
H      50.030687697352192     50.083646786273427     48.773271504223295
H      49.384390595818033     49.436893635854062     48.701122655166003
H      49.943577963814441     49.545031037235582     50.615678466850753
H      50.333759302245333     49.714547091078607     50.328843231301313
H      49.252134740225436     51.281170795978021     50.480059580951846
H      49.060503526832171     49.964381628446795     49.447428344530785
H      50.540303096780058     50.307205747226369     49.494476386109739
H      50.126705200203439     48.902205411979608     50.929799640378754
H      50.462004600784539     50.693824845350740     50.216494354218561
H      49.205217733385226     51.673637528444537     49.598476239235509
H      49.943214221728532     49.956629336521750     48.066815394330540
H      50.772999692564042     51.465245512322824     49.657350357124741
H      50.344032696859145     49.106583825538976     50.279590593492017
H      49.459268094695283     51.918231070331089     49.968282499677862
H      51.052219425691476     51.926877323927592     49.834940398023058
H      49.360304286069521     50.303462386504407     50.954638827993620
H      50.746205929663880     50.308379219595700     50.739717002595548
H      48.658590991226646     51.340955167776059     50.425106028754257
H      51.080409039691737     49.949547318669183     50.377612503652315
H      51.303847257373157     50.703834372008615     51.128364300435393
H      49.063863809226760     50.621330002682285     49.942290818125436
H      49.695546202198081     49.943021358237445     51.224671678611045
H      51.891015692600774     50.451894179863523     51.156607026336694
H      51.302925018760703     51.042272355046663     51.622104665723654
H      50.869568509970492     49.636253830818511     49.790435510890433
H      51.751035902221425     50.155670840299649     50.743681682946473
H      49.603934235362736     49.135756578002223     49.203336949319770
H      50.557747755626487     51.390353318173659     50.402949244855016
H      50.348460668521604     49.837344866837817     49.658206159096785
H      50.029144452909343     51.291411337619465     50.617335820252954
