38
lj38_benchmark
H      50.000000000000000     50.000000000000000     50.000000000000000
H      49.303014927459188     49.835054199530070     50.067552321108444
H      49.252647388381114     49.511065463267784     49.616346458740452
H      49.058727155778612     50.577623505744796     49.974645980010877
H      49.311002263981997     50.800298108779153     50.517792268496564
H      50.601197410778752     50.414412070986572     49.929585055909286
H      48.850753555170307     49.376806857116499     50.493494010076795
H      48.796682880340377     48.603701165805724     50.590239255317869
H      49.244649479347665     49.110551004321074     50.253106797749794
H      49.725010226918663     49.643951006197575     49.337586697137382
H      50.330998304086080     50.022577044142906     49.629752526428177
H      49.584342773580993     49.868737593101280     50.709062270354387
H      48.532612536622338     49.054857757386870     50.263975114547613
H      49.383443000390848     50.253768519288485     50.434969270269747
H      49.294688156027298     49.971551142262278     48.867225408265114
H      48.752672466413259     50.510475639341976     48.795263713447127
H      49.032246926857638     49.130748437936411     50.979781060282754
H      49.385802617102605     50.895545876105082     49.678459187664302
H      49.961368714177908     51.324181528844001     49.828723377006199
H      49.695395106168000     51.033354059936094     49.231951353020207
H      50.511363817903302     51.223243135008360     50.379503689425576
H      50.436164285343594     51.840160288397769     50.399651566714631
H      50.819543680034094     52.315117104761875     50.153607976848676
H      50.852137371662366     52.614993604116478     49.729553898274176
H      49.061458356327108     48.052356908118156     50.955850693439864
H      49.681283231142181     49.423101143162256     50.481314974721251
H      48.698502229883651     48.247495731493686     51.600436587622070
H      48.697287971425013     47.871971045054721     52.125486479345696
H      49.050754226222232     50.899227958437137     48.479364702402300
H      51.128293869765720     52.623784939490804     50.424042749504224
H      50.585816648556914     53.051347214145345     49.646953001660002
H      48.403564676946004     47.755116260463318     50.987768317175060
H      50.157322699339694     51.830041980040654     49.842689703369594
H      47.673249572598166     47.572726038256640     50.960720571337568
H      48.613924724176798     50.879392213330370     49.702961862318929
H      51.229969795420963     50.618064367701010     49.560356247150231
H      51.735627728543200     52.496307330348252     50.935751003417892
H      49.768911068242218     50.459505940026276     48.800693595883516
