38
lj38_benchmark
H      50.000000000000000     50.000000000000000     50.000000000000000
H      50.618535560484972     50.032809430301683     49.564349253016964
H      50.426856113145433     49.487596389507701     49.693748102322310
H      50.964585210717409     49.504549859745488     49.408348628298434
H      49.377703669254338     49.753570886181073     50.003015115957517
H      49.676205104502259     50.528744301923936     49.733657088095640
H      50.731875140708837     50.298078259848339     49.000164163346270
H      49.631908717236151     49.803726965646014     49.383595091867967
H      50.885710240111543     49.962361809320420     50.060375459402501
H      51.350169955633270     49.102534467055172     49.224375894441422
H      49.467758103286542     50.229528784693137     50.287068523573041
H      51.201661155590308     49.112696455104100     50.000539756333346
H      51.659726419626239     49.431910628770282     49.836343906028297
H      51.646290118658733     48.671469946846166     48.854510110063252
H      49.864452420959928     49.745048307692997     48.867791300167433
H      51.894906511223667     50.121966118212690     49.719755144111048
H      51.243966224032633     50.392029538342150     49.142065122335666
H      51.172690312824230     48.589173898634407     50.328267445761348
H      51.575408214523691     48.842158935025061     48.152095793931849
H      49.132459152252864     49.498035174132696     50.602018830098324
H      52.147538336599744     48.603853346351251     49.210222714871719
H      49.752706479408161     49.360883512942451     48.228497578614721
H      50.512984513942683     48.174591520005222     50.135847381204883
H      50.361345996743850     49.656001717862630     50.458798655994713
H      49.041972628041904     49.391255446622203     49.443987185173768
H      51.879316968781424     49.024731241635095     50.117607686189004
H      51.584501027981297     50.171510445084458     48.752018290074709
H      49.801005712922240     49.666854216644616     47.839467906776690
H      51.357115296894520     49.854285887573027     49.112784746376612
H      50.307673031738531     50.077383077543629     47.883108444864924
H      50.138053213749494     48.397865122535485     49.521175650634959
H      51.506190320249111     48.782509724301654     47.583217159348962
H      52.129461964556292     48.353449136298394     47.525263930708235
H      48.611741288931690     49.797552881173907     50.538099692968458
H      52.195571823017225     48.062399920513030     48.133619365531970
H      52.300919178570048     48.794294084999450     50.458026835403857
H      50.733422172585719     48.993367307116067     50.230544785534441
H      52.159252489168367     49.469264759215307     49.427039735700525
