38
lj38_benchmark
H      50.000000000000000     50.000000000000000     50.000000000000000
H      49.653673196645236     49.885229896015325     49.403862145722890
H      50.044912746338369     50.546846747582869     50.201918789649277
H      49.643722729833385     50.624038592135456     49.697770886355308
H      49.765826187524645     51.231649544029352     50.071616702222663
H      50.520344866960905     50.617797588334405     50.533622575563335
H      49.427899463420808     51.669240336615239     49.686920259637198
H      50.922927300080033     51.134869785358845     50.084582135171992
H      51.332159098585919     51.052470736592227     50.668721669532324
H      50.104018496453257     51.472839646423417     49.502379045498216
H      49.794737512515148     50.082841044015005     50.463578219659375
H      48.800621091912916     51.925237588906640     50.074820814458391
H      49.988910435936198     50.080940839205233     48.807175616140590
H      48.746697500818023     51.327734099251792     50.081650331864189
H      49.161506590062530     52.540311362788003     49.701199295119075
H      49.797780913366239     51.044778369083872     48.941132771160461
H      48.654997032013888     51.785623816147179     49.368187951810704
H      50.482675516864248     50.076143653743365     49.620630428621702
H      49.294269014662987     49.501609222279910     49.566032857098740
H      49.423405516232599     51.238446955048815     48.322688591529989
H      51.047866069661133     50.683041167828954     49.657027661052084
H      49.802102061994631     51.651360241400432     48.487493697246904
H      49.668856313681545     50.779997558732596     50.783081960904290
H      48.868313517132641     52.762140127293421     49.041436062659947
H      50.135940687782302     49.621071660012703     50.360280465970433
H      51.513181362628835     50.247854131500581     49.737066993388609
H      50.975912576973798     50.572296337482072     50.237678661765564
H      49.217298985509018     50.708491081609786     49.254563782517607
H      49.639810205234227     52.200222764304122     48.558153707349376
H      51.467141730437781     50.957163380283248     51.154581158529673
H      48.653194701896730     52.441662073500815     49.540935709570988
H      49.612054710275679     51.250781786470860     49.481327506315999
H      49.837550325382672     52.705181694797282     48.442742552971588
H      50.329838970422209     51.154075564932953     50.604727399862035
H      48.683172255887165     51.137046605252472     50.770817162548958
H      48.159237479958087     52.128864253132107     49.959527165109499
H      50.457739551985483     51.679487338281483     49.128852230534527
H      49.216387814235809     50.353088892280795     50.465260204853607
