38
lj38_benchmark
H      50.000000000000000     50.000000000000000     50.000000000000000
H      50.662710007689789     49.927481382117065     49.890207163089372
H      51.052055538400353     50.237020535303031     50.430648750493795
H      50.231064849676606     50.435779098879152     50.535586623829808
H      50.977143662045478     49.735882908832473     50.489351224134857
H      50.492296127561922     49.706376807403799     50.313443149333899
H      50.636624662698736     50.793212239830780     50.839864277827282
H      50.272649839057699     50.318289839829461     49.460471788528736
H      49.712914284177579     51.034817379385366     50.490913465301453
H      50.502885924264348     51.002468040251465     51.324720340622186
H      50.372149867278587     49.364138520986579     49.736703279846559
H      50.960942463687005     50.269967510222799     49.477659391023089
H      49.634832503656867     51.136759140915288     49.883571513284600
H      51.428908120264104     50.555430833513320     49.081965637677158
H      49.936772708965563     50.187388873717836     51.005099109148574
H      49.526696312370483     49.428842152314580     50.211288863816442
H      50.662632472790946     50.161211854287160     50.898045198773751
H      51.352527869801634     50.907981822057316     49.696617319404659
H      49.480448507619862     49.738941072953594     51.046605954705974
H      51.076488629477801     50.636097255935560     50.020456368286929
H      49.638552890223870     50.325303235457014     51.532587673944946
H      49.950099955757032     50.850949369830957     49.584587591826612
H      49.345965696152639     48.908341495467354     50.554471866441375
H      49.443331876854508     49.197695544573754     51.186969527532220
H      49.529032031517886     50.923002878502075     51.952136762492948
H      49.412058385728777     49.060468624974575     49.814179970473461
H      48.881480253082756     50.661352010740281     51.574674394937986
H      49.311887781490661     51.697102536451865     49.774785864134543
H      50.960142570241103     50.256614329041554     51.596608900926348
H      50.045306788525309     49.454242610750043     50.243193970390998
H      51.765817412905086     50.859764830280746     50.287635209390544
H      51.680369738685499     49.578131692264733     50.594230997439233
H      50.871541184182576     51.286779981968095     49.545809212968500
H      50.682641834091228     49.385687794750453     49.080714882239192
H      51.561459116504615     49.556808161744598     49.900789966738635
H      50.804587604103787     51.552087266797280     51.093230615841620
H      49.661619148083979     50.603842904336133     49.090079158491463
H      49.521616393383418     50.313156394046629     50.113006998508389
