38
lj38_benchmark
H      50.000000000000000     50.000000000000000     50.000000000000000
H      49.732299172697132     50.270381258825736     49.555512635978111
H      49.439969420517031     50.502181545899575     50.014493411687148
H      49.972555747696809     50.876249184054956     50.336808862187304
H      49.073790971658326     50.737370437613500     50.492725090506795
H      50.586665177450314     49.847323270934616     49.775318051034162
H      49.495137549831384     50.784289991205242     51.038417703945193
H      49.633509133112490     51.348477779207649     49.900774324921919
H      50.123510252802248     50.614980965939907     49.272417128230764
H      50.143150947146381     51.143332073861487     48.842217457472124
H      50.194428097077576     50.890199086172416     51.317500381563441
H      50.822778544735357     49.264511368051622     49.416137559978431
H      50.716822267266799     50.837203537366307     50.262181119771014
H      49.238065148496858     50.459543834625244     51.468253341854791
H      48.896838279935679     50.417520078127190     50.946629399745710
H      51.006806866383450     50.462510515355504     49.768322322787654
H      50.065876430230702     50.497189282438029     51.866222840650778
H      49.214554498078300     50.677007487940742     52.239715494390907
H      50.392460745139999     50.846068939541645     52.381332987616219
H      49.832979914877242     50.418214330450375     48.720571208287240
H      48.940454925617423     50.988122728162857     50.055478591498236
H      49.205101557909458     51.208258972022684     52.744129171863378
H      50.116249169849027     51.856174303034628     48.746539929925881
H      49.457003981756969     50.024363289845425     52.624224676529728
H      48.406532685080272     50.251323221664052     50.982551835437086
H      50.925239924161104     49.802026897915873     49.147115419197164
H      50.357448980454045     49.605698496166667     49.211052124729456
H      49.084905872026035     50.983604592981060     51.624324750504485
H      50.050380281973517     51.875771757073529     49.610529716665667
H      50.476155086783528     52.121313410838816     49.316159340142200
H      50.499074014834818     52.876326655474038     49.480703621760590
H      50.425363726620532     51.036551141041585     50.806019630652841
H      49.837917392087981     51.996772794760346     49.144960274162827
H      49.840523061108620     49.993368546331141     50.569586990885021
H      48.822488841667450     50.370979503120715     52.974987671951041
H      49.666888601201265     49.883340907187893     51.428142425168573
H      51.396794460081082     50.186244379227944     49.004581808194487
H      49.225436130995782     51.681075724845172     52.458599548035146
