38
lj38_benchmark
H      50.000000000000000     50.000000000000000     50.000000000000000
H      49.937141254113179     50.582645896839459     49.686204342761968
H      50.304371832680637     50.111023858507558     49.561902175835598
H      49.492933607056379     49.913657306313766     50.476121391493137
H      50.416279749827680     50.001340815136615     50.553304596443859
H      50.477664641628181     50.601810678349651     50.687718501629149
H      49.193526811274594     50.550027399022390     50.154466398947065
H      49.464314631048424     49.256117425316994     50.471109349249147
H      49.609724161036524     48.878682064409055     49.784155153388411
H      50.608299384910893     50.257152685806034     49.094058107434464
H      48.856479301380205     50.598496368595626     49.729018478366164
H      48.957325107672546     50.599981848595625     50.923057713692486
H      50.804134968161094     50.929916522336875     50.133965321352306
H      50.611143273638561     51.341894010373075     50.645559787845883
H      49.900301568845641     51.610216461775117     50.804946178452305
H      49.157250339384269     50.042132199568258     50.934087535132171
H      50.746382383263175     50.270166063555450     51.035546648820166
H      48.208421062102694     50.405060945417034     50.102023317698936
H      49.292096742874399     48.669122798140052     50.953013819117913
H      51.348234156310468     51.292924620409131     50.853727953189946
H      49.024174204355354     48.356638240304292     51.313488298562767
H      50.318820065733945     49.450356199279028     49.703292754655145
H      49.957547199329511     48.790310724540234     50.385256977495409
H      50.951894800258593     50.041521578930350     49.570696028754959
H      49.277952517648416     47.906734323158034     51.155178953311989
H      50.981771066718302     50.208734229807874     48.531414711059696
H      49.517500063530434     48.958761866490534     51.442801884381055
H      47.797588164178357     50.220269980825755     50.346830891790347
H      51.703359481461646     50.224073977348283     49.680956526205527
H      50.086566810428387     50.554742166401397     48.764807659349032
H      48.603542365473636     50.051061976023831     49.505626311592408
H      51.919144433571667     49.513847943381784     49.434260511945951
H      49.189435811776541     49.652158127434383     51.383846991122184
H      50.093278543912234     50.451867136240409     48.179364452314175
H      49.412182732675454     47.466054280686748     50.817883064659547
H      50.708680332234742     49.799323110262712     48.867613361453934
H      51.090673073768436     51.898056626488547     50.402955190982581
H      49.501098390392912     51.444449460053960     51.194045874281422
