38
lj38_benchmark
H      50.000000000000000     50.000000000000000     50.000000000000000
H      49.568199617312061     49.615994521970116     49.991812966896397
H      50.120335805744368     50.652035601091683     50.433776036698170
H      50.461531944887383     50.077862337803566     49.465303303180676
H      50.264853297694806     51.297565432003410     50.851397480515836
H      49.768962440312166     50.243162410519197     50.723557191862774
H      49.470058974735366     50.230323765710523     49.840512880007275
H      50.820151628806258     51.472079439954420     51.317593235141160
H      49.381037532068980     50.477307985906748     50.437758409144379
H      50.183468211291618     51.897608858254863     50.356747127120926
H      48.912799365683966     50.368459712130047     50.792565365674200
H      51.386508717660050     51.060338834252413     51.023845511150896
H      49.924891505898323     51.156720849151355     50.424088189280958
H      50.946516019530279     51.338895296739310     52.059247293248745
H      49.766519456021832     50.274217544672823     51.450637995313912
H      50.770061479686213     52.299994919182481     50.010772861080284
H      51.198631429301301     51.826725847920144     49.625180440513049
H      51.535331092052246     51.295983047632610     49.921420695715291
H      50.268306272853188     50.285494550268290     50.967739031583811
H      50.087885726873132     51.692737669349789     49.703940265405642
H      49.695935529430152     51.177895850875430     49.770210228855923
H      49.955913669507609     49.523615657650232     50.437038293418233
H      51.679629994729467     50.962555511270736     50.593717314608320
H      50.649229113848790     50.682673575105369     49.810775467363015
H      50.604843311753335     51.571047671952059     52.424764175900357
H      49.414659808981604     52.100461233902259     50.299585810619341
H      48.832371477570732     50.558218293525726     50.250226168412610
H      49.002324069656858     52.244499053589649     49.947269962103178
H      50.394482320804336     51.105173292840547     52.051509805631810
H      50.241675645153038     52.251129040257389     49.510114075541040
H      49.721145768136118     49.213308393561306     49.590171318759154
H      51.964170464487523     50.849875856496929     51.170432910349042
H      50.056799976812002     50.616225163135788     52.237929049569210
H      51.163917563146349     50.704638079472538     49.419858998983727
H      48.787700124277976     52.642313182105951     50.227457448328202
H      50.256489130173506     50.659874357105288     49.278473314351103
H      50.395334048998308     49.478530524725194     49.680128447679756
H      50.882287147112145     49.633321996434162     49.206259609975746
