38
lj38_benchmark
H      50.000000000000000     50.000000000000000     50.000000000000000
H      50.033376436201962     49.256811960068099     49.831848613644460
H      50.278372593783281     49.860133939205298     49.466698048136450
H      50.413382627212293     49.381121706041554     50.162338720208233
H      50.680153014757742     49.387881409064583     50.759392117704060
H      50.698086399011210     50.138252441965527     49.068236804417694
H      50.323000956872356     50.704668798536950     49.276478886254090
H      51.169901230375544     50.251474585674686     48.649307305134208
H      51.384919115462850     49.370749571106444     50.424033448961772
H      50.464942974465451     51.205966662387681     49.112163987132909
H      49.389641652541187     48.964521821710157     50.055265865172601
H      50.081300416511404     48.746126403836698     50.117084974639354
H      51.777973550302704     48.827566301118082     50.232561606973185
H      50.323624822604096     48.373613426838034     50.342768937593178
H      50.836541290363719     50.184077408945981     49.844925256834365
H      49.911892319943938     49.892159193780955     49.131204655024902
H      52.046950422119892     49.674058875323617     50.407278662372718
H      51.478506665354296     50.133584474964458     48.049027403491699
H      49.634997115597479     50.695659362968996     49.316074981413323
H      48.828494234045522     49.519873346541651     49.974839465551860
H      49.586157851525542     48.399917342514172     50.566641601390643
H      49.067940826561653     49.108679141837101     49.600700628468942
H      50.437322244070536     50.318068916665183     48.597140491040633
H      50.794343314448149     50.168781398191861     50.459569794525201
H      52.156266149574428     50.189900653445648     50.618268550829434
H      50.369561177553209     51.114420822687322     49.782398189625795
H      49.361990808608688     50.706147386567480     50.064759711979342
H      49.661525132125583     50.995190316430190     50.614398142764315
H      52.225797447522815     50.537377290194136     50.211512436071075
H      52.915805035323423     50.944512655073950     50.215513787058178
H      52.028515761922172     48.733818096176812     49.794647870385162
H      51.767764603984929     49.233636093637791     51.063887998954343
H      51.321974098130092     50.647821324952631     50.225484255164389
H      49.398043223944590     51.041765851463872     48.742037442263829
H      49.141188415218600     50.636087696805049     48.904994211088152
H      49.346521452819218     49.783259252445070     49.930002211302103
H      49.095808895992640     50.387957479760900     50.440361199994420
H      52.334221975242194     49.155003757972196     50.370139443510041
