38
lj38_benchmark
H      50.000000000000000     50.000000000000000     50.000000000000000
H      50.511795802406589     49.494488058310758     50.337856571731763
H      50.186949588095224     48.872415497592215     50.053942711052763
H      50.618040678438405     48.836965592380089     50.663919850084838
H      49.985775856537742     50.432504792939746     49.696630767442159
H      49.978818962798698     50.779060155220954     49.193647476656608
H      50.282222194457717     50.686627038320154     48.703019277088828
H      50.662937549353757     48.232072886866199     50.121122009938453
H      49.938195720389380     51.200295729474419     48.843979884865185
H      49.700567165852192     48.779709978239282     50.573737587981668
H      50.016902387170383     50.303333477948144     50.657078971975693
H      50.856391563841811     51.121134874808391     48.436941055769509
H      49.484441764929457     48.190669657877393     51.046230334873961
H      49.255269472429575     50.949830303500889     49.252704432322581
H      49.160115254812077     48.736855938404858     50.019311006614686
H      49.898564901048204     49.681473550287031     50.420848481828905
H      50.267855996365647     50.881359670588061     50.943604086954842
H      50.144118896392563     48.218629770541092     51.389969948995663
H      51.081202870495332     50.711281579181751     48.054771773107042
H      50.666917006665813     47.749810606900631     51.636202339251916
H      49.396029546963298     48.296918585007347     49.845842039761344
H      50.855331290968230     47.595735824775495     51.060236178464969
H      50.256485027487720     50.502425505358410     51.365262008823443
H      49.720596541597146     50.206715235688215     48.430876132806276
H      50.542660887170861     51.094112466205587     47.707988247827892
H      49.701233107821366     51.162655304924435     51.028553427078805
H      50.931387931468088     50.323703041335143     47.480947567120062
H      49.498648396077662     49.605858542678241     48.849683544676495
H      49.715141975274889     50.022946006228331     49.132917368860184
H      50.955182208530118     50.556068234629066     51.580688923592994
H      49.243030851107562     49.363327881192646     49.797947119159453
H      49.398600917273171     48.360322114309085     49.322231162509262
H      49.692646585797284     51.885736669952095     49.091673310486897
H      49.630813348686658     47.648206537002473     51.510005753764382
H      50.591352782829020     50.457314076440198     49.893640331188855
H      50.049987085892958     52.542192404463634     49.129737350811411
H      51.025758645702297     50.040666479264466     50.152106599677630
H      50.169394744808500     50.213487684718061     47.345196600263975
