38
lj38_benchmark
H      50.000000000000000     50.000000000000000     50.000000000000000
H      49.504748957225914     49.460068656955698     50.101123730503410
H      50.536554118069901     49.909845964620295     49.500986324866375
H      49.569549622997165     49.338169547980968     49.419427957191651
H      48.786012104301903     49.276457223243391     49.553944084340394
H      49.925315943065470     49.083404921292050     50.653915706379777
H      50.118623175587793     49.172149822886432     50.006548525402700
H      48.111449001647742     49.490933266990098     49.680731705557683
H      49.586148012879399     48.742921814554315     48.951470579932661
H      49.671274872226064     48.583867397705852     49.888180390480862
H      50.260337122493119     48.482686427603980     48.845754878714494
H      48.372026492065203     50.249679218891458     49.605753297786279
H      49.387915846125964     48.292196752945657     49.031362370904588
H      50.363086758137705     48.248174778240681     48.413420069405134
H      49.198765032080622     48.302911016773024     50.345915281986827
H      50.833744424535851     48.244481953402278     47.933845543668319
H      48.603222622184411     49.645338347220232     49.060534437605284
H      50.451115305030903     49.151675537830549     49.160357858468117
H      49.757291856820196     49.994054942352378     49.022453701196653
H      49.120308994549916     48.790835966183934     50.143617745640825
H      51.216132266963257     47.778833018554991     47.653626323211640
H      50.667869329009754     50.463973441561443     49.500696399524102
H      51.673521188940960     47.491867529329774     47.372739268284640
H      50.367064309935536     50.326345443004925     50.506172198641480
H      49.662050312167587     48.129680311043380     50.830443011527720
H      47.605340803702624     49.759375187543547     50.042624208169407
H      49.217656510628217     49.785490106367888     49.486335233198780
H      49.858339000764843     48.561958633023281     51.017581382584908
H      49.681936408271888     50.530542299468692     50.092455884883883
H      49.566182756280824     47.991668777117503     49.700970616393086
H      49.385497283413457     48.936892781785396     51.369996249265022
H      51.312435980956700     48.333909182966366     48.059358411347247
H      49.460539352716012     48.701382834146678     48.379981214547882
H      50.754128041297129     47.715179190121262     47.300534406444832
H      48.866588514336549     47.790933326277397     48.743860067739611
H      50.885365699485526     47.131963965835396     47.551763501605542
H      49.922043418819214     48.924800873886078     47.896956540461794
H      50.608899268834016     46.782507302669309     47.131704311229470
