38
lj38_benchmark
H      50.000000000000000     50.000000000000000     50.000000000000000
H      49.864723218603821     49.697547236015765     49.579847705358546
H      50.072000615010666     50.054217883264513     49.117942455621154
H      49.763579868750426     49.619908626130389     50.550227135307061
H      49.868415818631156     50.255939554271357     48.654771915387336
H      49.618768549117704     50.639116709901394     48.150937197306121
H      50.595394405261402     50.029999801619297     49.133998559677181
H      51.055361180584924     49.961187052001833     49.325636871714373
H      51.521742545631106     49.398840370825759     49.603101855183120
H      50.924496450697831     50.564395223649399     49.331994932207579
H      49.405250297360197     49.645361716279922     50.069268462883898
H      51.680076578921245     50.294346643157326     49.627696362442521
H      50.539852717299112     50.174670604319033     48.523310078106391
H      49.227653976379735     50.380433872977946     47.574526214679679
H      50.209119956824608     49.052014795625936     50.731380956225181
H      50.617629947483678     49.664610820281624     51.015617401570765
H      51.569616660721252     48.750243022176633     49.541553542766387
H      49.524209490262926     48.904549920695942     49.880304188811273
H      50.711099570514612     51.176158138701950     49.717230595970285
H      51.080855201267717     51.102278964823483     50.275253378817723
H      51.675224555466471     50.754309451556210     49.375486645586463
H      50.828873536397531     48.908309108837550     49.734262085978145
H      51.235944215003528     50.160893053141919     48.301666034793378
H      51.155828521630824     49.194528969322491     50.698200626597654
H      52.091802677443276     50.716691845535564     49.804576211742805
H      49.771148809727777     49.085124145078218     50.427616323316641
H      48.677217050160969     49.432010233203592     50.234427565915688
H      49.447222029982981     49.917478456231287     48.937844918389501
H      48.713258513286803     49.195211284620875     50.770478910368787
H      50.488646292189998     48.474854692783673     50.407348831944361
H      51.543979837568571     48.345389401849971     48.862977103128493
H      50.514242351355946     49.386856399203232     49.534825825846880
H      50.430146871422394     48.924109476461602     48.926485180871985
H      51.353110198240273     49.038209850683707     49.043694809102043
H      48.018035953947432     49.171985706230231     51.081167654496113
H      51.359976711343563     48.736723537158738     48.208653016761538
H      52.374568873275628     50.548781381456379     49.057514822942608
H      49.270000449408698     50.435138047385685     48.669186526440271
