38
lj38_benchmark
H      50.000000000000000     50.000000000000000     50.000000000000000
H      49.607772942463455     49.766765926751425     49.740202677003545
H      49.660341136042078     50.281301958983377     50.507160179871200
H      50.540051773436197     50.349652470344274     50.155297226944832
H      49.411827730221866     49.893457732449583     50.796447498501109
H      49.369708744697220     50.334352411066455     49.769691506997887
H      50.411712285912181     50.853704319369385     49.778112028705017
H      50.629967203731930     50.328902018158729     50.664852360437266
H      50.138561025492884     49.956335188085198     50.944606938053155
H      49.033911094800921     49.870741448878121     51.290617641088076
H      49.893614722086873     51.187547501802435     50.161988061546410
H      48.897952515077819     50.466570514513052     49.348074116326210
H      49.670670982988284     51.253994116491121     49.468498715529250
H      49.861229551169536     50.543340083960643     49.452030833844276
H      49.617903819563011     51.781504254570635     50.080858515756276
H      49.816052705032092     49.187135153011667     50.044136885075048
H      50.308939811456092     49.786271673824871     49.563114510440343
H      50.079858755636195     50.911937301650099     50.716349213060603
H      50.459739775664325     49.236427125986786     49.326234425345135
H      48.752990208380538     50.551288120288454     48.559878725807337
H      49.787376119488343     49.718266296859056     49.048123165589793
H      48.548948178296456     49.740716725177684     50.801136608976286
H      49.164068617252354     48.928298161892464     50.404729825858048
H      50.552142456416753     50.826421359300447     51.303699845599660
H      50.194667095136168     51.924846680324883     49.815049553775403
H      50.280557097273892     48.705211072912448     49.541068236939871
H      48.085067001629014     49.664391082285555     51.171484412918744
H      50.574537752392651     49.317861303905424     50.062797434924619
H      49.046777453567884     51.067507661679286     48.910020401045045
H      47.540788043796454     49.868212285917650     51.632666134158093
H      49.190351742334030     51.570999136703151     50.502702845466146
H      51.044450458381391     49.679527342025551     50.640615182616706
H      51.210533202682896     49.734394571640102     50.080143631188704
H      47.805354558208705     50.196486090957684     51.290232664766521
H      48.879275474164480     50.405332450969482     49.938447324807420
H      50.173895964915957     48.105862181006103     49.327591569515107
H      49.629294330575270     47.750609078686061     48.962089181600419
H      50.448774786097431     51.698955792124316     49.279015326065476
