38
lj38_benchmark
H      50.000000000000000     50.000000000000000     50.000000000000000
H      49.620685475993554     50.439277594333007     49.562956119633078
H      50.239925392857351     50.795698085921558     49.249337857417053
H      50.960396019479298     50.734361368735421     48.996204119629169
H      49.813419192949880     50.164495444687773     48.899581436364478
H      49.745273688919205     50.329484889972100     48.199191390369471
H      50.207166644882371     50.151752720216294     49.211425979085959
H      49.095647382569005     49.917763431264738     48.876142870741766
H      49.488184231393980     49.850779567548607     48.027867645771011
H      49.219018645417243     50.753021192564461     49.487316081863185
H      50.089722801933533     51.493474672508228     48.915276757859047
H      48.655110312999426     50.992208610484120     49.277600250694910
H      48.374423037447762     49.716512232455592     48.973191159622431
H      48.538499294526247     50.751984316968674     49.916134046378239
H      50.284204612354017     49.935089667892434     50.602634184853031
H      48.904129064701443     49.259020920517919     49.300745831907847
H      48.834223611742452     49.798402825555982     47.658142778705802
H      48.819340879933996     50.238861734479805     50.022460713012592
H      49.277305984691402     50.076586196562502     47.387219241691071
H      50.403023845336740     50.762639914345158     48.599882115515264
H      50.139114692510972     49.439953635013453     47.983657949843774
H      49.627991939515880     51.705105431840181     48.296500092947468
H      50.085489854447488     49.678088904280891     47.517006980660476
H      49.249375822126360     49.718270773668912     49.900619522171958
H      49.386112547511864     51.217286943059399     48.590064218920503
H      49.633181198747067     51.543797060218857     49.431158467409247
H      48.903474191748572     50.825291417573389     48.489737306951533
H      49.680346679836440     49.406233737957130     47.614099706383378
H      47.674340500818744     49.823265217684430     48.718977711472533
H      51.015840092484055     50.547481926506407     49.658233953835349
H      47.905660703701663     49.656062486699412     47.968818041404880
H      48.477927749021916     49.610660554806316     48.232946638148334
H      48.091492046925914     50.436150537556223     48.876975757653298
H      49.106839628537145     49.188134796251447     48.428319826276500
H      50.048440481937163     48.960600177169319     47.083711689937722
H      50.213689040223734     48.239211899841514     47.117477940091774
H      50.602622031616818     49.350003850165315     48.584327864761541
H      49.144161505725215     48.661612931072611     49.415595841623343
