38
lj38_benchmark
H      50.000000000000000     50.000000000000000     50.000000000000000
H      50.072181084825232     50.203093999414747     50.558555475272648
H      49.588889373374265     50.193830929816421     51.163240924006381
H      50.062708748795366     49.503110768468844     49.725276401410390
H      49.143849403591226     50.679550228743189     50.943807444555837
H      48.822189837241666     50.225041111600603     50.728831070574287
H      50.317045023220686     48.981103367430620     49.494628869565865
H      49.481449432668420     49.776579238668560     50.744196620748646
H      50.557500598071968     50.008251932514277     49.631412379984283
H      50.409419785917819     50.692162257460254     50.892698602960849
H      50.850243444204388     48.922500285547130     49.693098114818000
H      51.322248179768053     49.990601773611253     49.820155121203413
H      48.538723863733821     50.663057529869171     51.068870174050986
H      49.674579596252606     50.477486324829783     50.082834963975387
H      50.369542541914562     50.991439253181397     50.285448634530788
H      50.842692224370673     50.950172529264364     51.294202034485494
H      51.086415005505685     48.588919475159962     50.154021710813900
H      49.620965142215404     50.677617641925039     50.710634749519130
H      49.499931659154193     50.996703343890985     51.422058563790024
H      48.153394558160315     51.036657814968571     51.619644601200250
H      51.379254027794197     48.340337277076188     50.659350766108425
H      48.457065640783512     49.637406626869399     50.475765440480032
H      48.676196933088072     49.769702427182231     49.857967080028779
H      51.490723474024620     49.893405214635969     50.530139008195299
H      51.779247859831877     48.213827125329935     50.156045392457649
H      48.851096744652729     50.535234800364563     51.581009285588763
H      51.369513281521769     48.268489768655662     49.602199510134163
H      48.268538462327975     51.077188924356911     50.964164163927144
H      51.680288269687694     48.502841748413438     51.260403075284565
H      51.909116337061967     50.280382867935927     50.496300405717953
H      47.809281969224969     50.732703599271090     50.694231658644107
H      49.715474355851008     48.851698132790887     49.373450055542030
H      48.460011149027103     48.987791876451432     50.897402484434892
H      48.708328782243996     51.450973087576450     51.446939629161655
H      48.293110290667876     50.120460095968738     50.105738509024334
H      48.462764345692335     48.611084875067306     50.444956339441688
H      49.377137605754484     51.634291042340251     51.737042554411829
H      48.809485841857750     49.351654310554345     51.431313909234909
