38
lj38_benchmark
H      50.000000000000000     50.000000000000000     50.000000000000000
H      50.619083879423656     49.873072682057320     50.399100808372587
H      50.832428891752969     49.754829872036673     49.802750720023347
H      50.495223750353198     49.332070886949516     50.152064903644124
H      50.483812152183077     50.609244554187669     50.033681092386161
H      49.885792065719869     50.106683611671869     49.512233628106877
H      50.884010307207589     50.608598351418038     50.454997318451028
H      50.986023691079971     51.061506153204022     49.779915095652015
H      49.567759415994765     50.698978140591180     49.126620038451101
H      49.748139247747616     49.609947333213356     50.553500016211459
H      49.074338546627317     50.847224132583946     48.939398486029241
H      50.033685170920734     49.071491837976517     50.789111544006630
H      50.925205756142155     51.671415983299333     50.244016377563419
H      50.054050961773335     49.728178075820814     51.112898073257732
H      50.526582237086657     49.739227285795373     49.357482024540950
H      50.575172776416018     51.335520032153134     49.594382270707193
H      49.149190488561288     51.532377430239450     48.896062055426071
H      51.085361163969999     50.433498094056290     51.023114404599752
H      49.313237601780557     50.525714217753276     49.657421886198136
H      51.410638760433606     50.226557276591848     50.618481990880305
H      51.290680508319852     51.114444651901586     50.253536230886198
H      51.041296818583945     49.910035867916818     48.882249455583931
H      49.666763334106818     49.212335587564390     50.134142657030679
H      49.910790469806315     50.218372481058758     51.062137622118087
H      51.189999278042229     49.272622600630648     49.779995779574620
H      51.309189005487752     50.476214353441968     48.395968027634716
H      51.806882627723830     50.586012978185330     50.063913140040675
H      51.590004035498730     49.047514479425871     50.406963065182104
H      51.126876761674481     50.596224040128249     51.656117283284573
H      49.853939916503428     51.472490128362082     49.507198895666882
H      49.797242405599079     49.695531290918524     49.006809070162937
H      51.751141370815866     50.906477489742983     51.726605296968287
H      51.309743103807278     52.181734345907458     49.885462270459868
H      49.148163680948556     51.172278530642053     49.934707964505151
H      50.311868844673548     52.002277174936545     49.276986691921707
H      51.330416623763490     48.766845870110508     49.775126442581666
H      49.115745669837786     50.137106709165771     48.928631031802581
H      49.923593233151877     49.045425835120682     49.017753090063749
