38
lj38_benchmark
H      50.000000000000000     50.000000000000000     50.000000000000000
H      50.290108379334256     50.085669107186142     50.667064195103684
H      50.187422551402008     49.486884075584747     49.895463089308663
H      50.433692066475601     50.489044948953435     50.040139903503970
H      49.390891106651075     49.593582393438346     49.674181519924431
H      49.516027467121575     50.319191262311833     49.494895027783784
H      50.470653027028177     51.074260269322082     50.001271661140315
H      49.710678104010320     49.185314645968226     49.911622622208462
H      49.715759411993041     50.268909411673249     51.114695275329090
H      51.042784180730706     51.573007087763337     49.787495681704641
H      51.663421421508005     51.675306806957664     49.981661709023115
H      51.761611568973031     51.714917283295158     49.435840393589203
H      49.088247583850169     50.421881299540232     50.770404658088729
H      50.040798895012372     49.741011546326249     49.324800520084359
H      50.463490704631496     51.898804411915485     49.792815839067856
H      50.824431436509421     52.238609657558875     50.092128610777714
H      50.316636809938473     49.312116891340786     48.785727473755699
H      48.915469200196981     50.604806296058840     49.071521795030236
H      49.779733957414621     49.067312608611346     50.660504311315059
H      50.662297258089652     49.494366593906349     50.957719551303661
H      50.467829788629317     51.604604545793627     50.281318267899131
H      50.324555325802308     49.875609146322113     48.746382160950240
H      48.919129086705375     50.446888422099519     48.415178544740201
H      50.109032288897865     48.867450192855856     48.163583549614273
H      49.764263472974214     48.255102071810889     48.158402318199400
H      48.599539147611708     49.869609682803322     48.275085343593041
H      50.119401957025275     48.590903089442591     51.080109973020029
H      52.007916306143343     51.718627234184844     48.720920935563811
H      50.739337829862698     51.365186199582666     49.420804052769405
H      49.655574964099507     50.201065560088622     48.984305615661938
H      50.073304528856887     51.198369307357829     49.481903249778995
H      49.683380583462636     48.343128403079739     50.792182273897723
H      51.234410265851814     51.215317927029780     49.146405682529064
H      48.176519978406013     50.755677860217695     48.840067753528025
H      48.687730043139148     50.632668546285934     49.692685999994090
H      51.003700440954532     48.838958822615631     51.122893832526117
H      50.777281294971438     49.932812060993932     49.301942501708396
H      51.279929649907352     49.890179709848340     48.781740981833153
