38
lj38_benchmark
H      50.000000000000000     50.000000000000000     50.000000000000000
H      50.197672797181390     49.548623232418407     50.453305949318363
H      49.434134164220588     50.138282298177963     50.466272775854371
H      50.213347105132428     48.933217732464655     50.535969449563666
H      50.329721421197995     49.908159490610629     50.978805152832017
H      50.080259912997491     48.636951662222785     51.258862059564152
H      50.082339603853328     49.750268360453909     49.482415424020196
H      49.872653571338731     50.289568097228219     51.307663442639281
H      50.467666068846114     49.704228916308253     50.044561617415432
H      49.501549102934042     49.332774154011297     50.451167171989965
H      50.092377800787020     50.544614939968298     49.982059208775937
H      49.623404541881349     50.958438507372222     51.450875399028526
H      49.535579768426068     51.001996082982863     50.271728130082721
H      49.742713298776110     51.626918808226215     51.293614774599298
H      49.815085795776895     51.242761689530042     50.617448490818298
H      49.979624166430405     48.159311431312602     51.103602111178276
H      50.364296729950674     49.080712448047663     49.983407648055902
H      50.015538757546651     47.700451832351135     51.717715249317720
H      49.283675524353747     51.130211892138192     49.586412016276149
H      50.157855795705231     51.964789586899357     51.433297412520481
H      49.791181707119271     51.640015231155019     49.419897046535596
H      50.777286949621043     50.762438348151200     49.709625386658736
H      49.797230883335203     47.208129039263319     51.183920748020626
H      50.609130093273500     52.298901092076399     51.573812424609194
H      49.690172015253374     48.566927193849033     50.335833469886900
H      50.366397936982970     50.372629864842906     51.311393153157368
H      49.257552852045364     51.370186949915066     51.154419136497978
H      48.849008419538350     51.007730298576185     51.619874327784331
H      49.718486124336756     49.143832895240323     51.483283338431022
H      49.694144291697640     49.221436659484020     49.829346239298019
H      48.706275066694801     51.724748896358506     51.282311595883847
H      48.955015554248767     51.565920743557200     50.691586557859736
H      50.496969346495092     48.405168776399194     51.705232108951904
H      49.485423478889494     48.618395920743794     51.189229762673676
H      50.829514084393175     48.879609252498170     52.218263807604096
H      48.362111334699804     50.487935324106630     51.380913435215042
H      50.888794137405675     49.470165337639216     52.176903727150922
H      50.579490258251930     48.552156406813495     52.520132218063061
