38
lj38_benchmark
H      50.000000000000000     50.000000000000000     50.000000000000000
H      50.379201693788168     50.644528652013378     50.004121918355921
H      50.658620247242119     50.311811929106632     50.375646015265716
H      50.879192031337745     49.740947066887891     50.130900004050240
H      51.188830376131506     49.197500546708483     49.713941438508584
H      51.149906561817218     49.843204095626902     50.749006421242015
H      50.993654452038022     50.428934801242498     50.753686277091596
H      50.830093307749301     50.141860952902462     49.746284325434168
H      49.966714346885261     49.443003952109912     50.399974062606177
H      51.480397347093849     48.706937924964471     50.081477198604027
H      50.409930713987009     49.327099717080138     50.623595882376492
H      50.777919292718423     51.087386869438141     50.551986490552970
H      49.863081729888563     50.405388086685093     50.633027289541943
H      50.654424124851005     50.493511305235018     49.353428810985235
H      49.305117194831162     49.806470101582008     49.669888850698506
H      50.056695819517344     48.763601310683619     50.709876812121799
H      50.015769776334047     50.652685005175414     49.098476298587556
H      50.628910414547953     50.232623524281649     51.229165440305302
H      51.643732773207660     50.861921494378514     50.655516748852875
H      51.515471965314632     49.724243675531440     50.326488415047955
H      49.860792491924187     49.845847899980583     49.303410093959997
H      51.317034182513929     51.195339924805424     51.211791549824468
H      49.325160987388337     50.011970361869828     50.398828435772487
H      51.028407688137492     51.793002160494311     50.613346592888007
H      50.048569054690262     49.639652683488421     50.953875818605624
H      51.341600183034622     48.202344307675112     50.253357870573304
H      49.728800344713839     49.831048615279869     51.521778536859451
H      51.167573671282518     49.982480223849826     51.367999380979761
H      52.026375205021367     50.103849481890897     49.860855089824476
H      51.927962348188785     48.875118132073432     50.582029558570397
H      48.815216235293448     49.579166872383354     49.320497957439429
H      50.608669568893056     49.716216857831633     49.529011012975268
H      51.800873616398924     50.748404450043971     51.129973704750469
H      50.193107106941220     49.141122935594765     49.276872967099052
H      51.977887203422341     47.774027239842773     50.022795125943922
H      50.185547020740863     48.539136970186703     49.493488546994733
H      51.715650893204128     48.269230412130334     49.629968013785245
H      51.927637784589550     51.229112224913791     51.554791628346081
