38
lj38_benchmark
H      50.000000000000000     50.000000000000000     50.000000000000000
H      49.534551512807127     49.851128290684763     49.850864667555754
H      49.158473874771268     50.088456325940911     50.296258875583945
H      49.732584188346792     49.562145418329365     50.373226095488668
H      48.491207774590478     49.893796465595052     50.372857556931478
H      48.020912168419699     49.346684868732900     50.304730484833861
H      49.240281674122102     49.982357749664381     50.796568616354982
H      49.631463506872549     50.124744380566575     51.073557028314411
H      49.399521058819246     49.414092803109142     51.014806143104217
H      48.274699738165680     49.080458345262549     49.965715093197353
H      48.612678412951631     50.388629903222238     49.941760962462538
H      49.739402735451293     50.599824459746166     50.759293532665822
H      47.973907151693638     50.822741432857946     49.862878445798593
H      49.523448303384754     50.721186626878598     50.025756007252092
H      49.137726787584640     48.925646627424868     51.160550440529612
H      48.012852766592339     49.561560216540379     51.038714928057814
H      49.681944230858356     50.860108035949729     49.342782834412560
H      50.087332850878212     49.992151469287812     50.784962008782827
H      48.791864956098316     49.994335312125891     51.180790614618033
H      50.324358586660061     50.330204409903786     51.154774400387559
H      50.364125904202673     50.549077942167983     49.102001226091716
H      50.442785347784820     49.794843760369083     49.132653828955277
H      49.019238689860600     50.775026927890409     49.091045650687590
H      48.470399019349223     49.500864392459285     50.691791999928803
H      49.251745132075499     50.915004814445346     48.610964302824684
H      48.730707099899575     49.619355000586587     51.727692196751747
H      49.794062305461722     48.797171215157434     51.436365705151218
H      48.727694292371211     49.411306544993444     51.118258034685056
H      49.364390506591846     50.987113455970487     50.697548959103571
H      48.203893260603103     49.917540080047949     52.237271498430175
H      50.485103242536226     49.350901413515381     48.859869468823774
H      48.137627141175273     49.313573483742907     52.140635411148665
H      48.336900258300915     50.523442871095114     51.193227825418056
H      48.338632748369811     51.310477251146523     51.141100954729879
H      49.006292740604167     50.687201372641987     51.208883965654799
H      48.126414536628829     50.189319509747399     52.659000308955896
H      47.532829807696899     49.996376704314542     52.879316771492427
H      48.184901078563627     51.227227478776584     49.413927876974199
