38
lj38_benchmark
H      50.000000000000000     50.000000000000000     50.000000000000000
H      49.318470791031146     50.145960186075641     50.041791722290768
H      49.434062301551961     50.866686380172673     50.249146406899257
H      50.075021972732671     49.521862265878035     50.134055855012690
H      50.691306160780847     49.204008804708941     50.233581646896830
H      51.104572596923759     49.541120742071904     50.203320003809949
H      50.314341612163872     50.169451251052138     49.374342783287375
H      50.041956882542813     50.692019205568407     50.625146978619156
H      50.477989623043420     51.115567674776315     50.357526411035984
H      50.907663634714069     51.521743634310148     50.839202561589929
H      51.158424670502470     51.088958184782285     51.154476929069595
H      50.680160746050980     49.912338643057218     50.516712440505742
H      49.058632582829773     50.172995842099020     50.499647413163949
H      50.796195995909869     49.945048829998306     49.982092290690836
H      51.424667202450792     49.449915157598603     50.878802979078607
H      50.869901450455032     52.132217346284108     50.381216180949906
H      49.921186702448999     49.883496643712895     48.858243944405167
H      51.600948317876508     49.227056012762873     49.963048329649425
H      51.401594975660558     48.784062710581466     50.255380759787649
H      51.331500293309922     48.908223553242962     49.386934258274259
H      50.030780002710607     49.201391307006247     48.797051756092380
H      50.464848685104556     51.063418258238620     50.876597108696735
H      49.211277160701187     51.362252482976800     50.030942366987539
H      49.425604849468236     49.251103387176038     48.559743711154624
H      50.065782068260972     49.096758286302219     50.415500141892124
H      50.494330333287294     49.678232075059519     49.155998556707004
H      51.431345706587798     48.063374032238947     50.208476489991753
H      49.164433663185790     51.080369944874668     49.339597735082641
H      49.264506014091161     48.563579472211913     48.429644069293538
H      51.103724096283194     50.568506032553067     50.397594742054842
H      51.169057982129154     51.421154758687727     50.298440255153899
H      50.191253686129571     49.806410456628413     48.207170370325912
H      50.804751500588793     51.551856015869127     49.823926226875841
H      49.765298418487383     48.046135689359268     48.597345605925121
H      49.650975500722510     50.337240910375186     48.191990531251626
H      50.406535461846346     50.459841307466355     48.429638497076681
H      49.502000590590114     48.143069742617413     48.120652508473889
H      48.683030536553638     48.543748987944980     48.712333049504167
