38
lj38_benchmark
H      50.000000000000000     50.000000000000000     50.000000000000000
H      50.451849315311691     50.503892116453017     49.770943050383444
H      49.612133518904713     49.781782425680277     49.548414697941070
H      49.818848203298032     49.825354611949209     49.029090878390413
H      49.534784287626323     50.381592915752044     49.302073998780315
H      50.389863956675001     51.036571273693653     49.572955684813579
H      49.559941074837084     49.275476183893922     49.448002662837304
H      49.941884774482013     49.216577309870296     48.823093006940574
H      50.482890820020188     49.928885898191659     49.033045323308649
H      49.904749841494493     51.082136350942925     49.355583205660281
H      49.905532202784237     49.302217686953718     50.354762717151630
H      49.961455813471517     50.654606360611403     50.095363249765484
H      49.039318774215751     50.525506923169040     49.441343115449442
H      50.869719275508203     50.216342732828878     49.531150664170944
H      50.837913867167302     49.976196006593923     48.664815801987672
H      49.518455023951653     50.066769939731898     50.492927307237906
H      51.055347020246344     50.930567484320427     49.515592537858154
H      51.468425313714349     50.413004574076588     49.949116963324215
H      51.415100635403014     49.906127052444361     49.218581922002940
H      49.079061423310321     49.475906554840222     49.884741597360453
H      49.310331048893111     48.813597976515887     50.186340359732405
H      50.462422954486982     49.159499495731623     50.213094244664525
H      48.753238009328939     50.709576578016559     48.836659839103696
H      48.841548024910082     49.689595339141313     50.647953377643354
H      50.961561975673710     48.880639848927096     50.669105455325955
H      51.947105920461269     49.911566953127881     48.934882402635814
H      51.569662512152782     49.536380030893874     48.703326863868114
H      49.518622524345076     49.579662642124781     48.279864142087085
H      49.811736632667333     48.801565367961430     50.436629546253258
H      49.494648119163777     51.681537005963314     49.247321500280989
H      49.661477024147089     50.719081593846454     50.596403105202249
H      49.717835640042452     51.213675296145112     48.640429013829852
H      49.615593556737153     50.621437260670561     48.689416517276165
H      49.631060904185176     49.134973326282363     48.000400703349229
H      49.547998587308449     51.549820099402751     48.178791427365411
H      49.216566354992935     50.904754959777101     50.019038986100142
H      49.341720029881024     49.371873584305590     51.111548184266951
H      51.283254517016672     50.461924036356834     49.071364127998294
