38
lj38_benchmark
H      50.000000000000000     50.000000000000000     50.000000000000000
H      49.422410559534022     50.097682156236679     49.494228522776368
H      50.196241850419824     50.458540317809536     49.743979677642265
H      50.657992365024015     50.341758379364634     49.379028297133893
H      49.662605987796283     49.693116584106349     48.840631061412800
H      50.585699869156173     50.715282384581322     48.771315958765300
H      48.790972897073821     49.661221801352639     49.269234029133251
H      49.881999472580858     49.075011662171136     48.939369583969565
H      51.357469453049681     50.639052452534997     49.444515449449597
H      51.135036321557102     50.578523601267349     48.480645373161991
H      50.072291298059220     48.494182991901951     48.943274070617377
H      51.164481243419957     50.182058345805189     48.072277261392401
H      50.004945670762631     51.023277896479534     49.713651173280702
H      49.629572767082998     50.086451276739830     50.397478847438549
H      50.495006201530444     51.169077722294119     48.408944835707231
H      48.723909749374933     50.033529726768109     49.956449379287186
H      48.976586847990973     48.990566044375967     49.123383945732371
H      51.606786961009604     50.773085826891112     48.316645503193527
H      50.282644227520329     48.580262231591142     48.321494993293868
H      49.620746367146793     50.442670713526013     48.943830054480095
H      50.436140588571298     48.015177543902986     47.940401353125189
H      48.007924805486759     50.140836653779573     49.858262624946022
H      49.723134357957349     51.184935980387138     50.132603247713504
H      49.317534095245861     51.704301790906015     50.218384769722249
H      50.290942338511385     48.867778169538440     49.316071773651146
H      51.667441149253087     50.208904444344839     48.864719403809822
H      49.615736530290455     50.610448668753676     50.153128475690252
H      49.025349716685930     49.727989780976259     50.725066247809330
H      52.078817941542447     51.025892442671704     47.774434824704770
H      49.229149907106631     51.061904511567029     50.043731301462927
H      50.093831753308372     48.004606455998548     48.385867968947430
H      49.751737206689072     50.624744720422946     49.499318610779852
H      49.763828821535348     48.827174318368435     48.404184303225811
H      48.467452900617978     49.563067527708874     51.011113656700658
H      49.525925665362287     48.288148015277386     48.939616332172506
H      52.417406736930666     50.524419159708515     48.191006159296229
H      48.944243476146880     52.288226759007905     50.562758912994397
H      50.380743783409102     50.607293143117190     50.333149796658844
