38
lj38_benchmark
H      50.000000000000000     50.000000000000000     50.000000000000000
H      50.377300407557954     49.710881009250791     50.317918362224667
H      50.235452215272957     50.078776237944901     50.999636973056788
H      49.570043761023747     50.497054337865634     49.714650212363786
H      50.622638459215707     49.310227139063208     50.631410375283352
H      49.253641631720072     50.604069866204640     50.118196812996196
H      50.082692419440903     49.559068932102534     50.798882369527739
H      49.709334520614092     50.047295535054147     51.545638258471143
H      48.751138629965027     50.219430030089988     49.848609072508523
H      51.009482436603228     49.472944302896700     49.893665192777895
H      50.864174707189036     49.098654148925768     49.409521866022565
H      49.932090074569864     48.902795898674967     50.488090560283119
H      50.093091692483164     50.533711851953449     49.660621698058712
H      50.522561845731424     48.516057969032261     50.302590192990728
H      50.923010437265404     48.820529070356216     50.849158668956932
H      50.410691378460889     49.615391209800613     51.376838966646439
H      50.308881783253426     48.715556091969923     49.041571549686758
H      49.183435216441808     50.174362225053805     52.038147086863482
H      50.188933878848566     47.947753787639471     50.727216787392116
H      50.391399934839335     48.402865393299642     50.828747264747307
H      50.858845206527150     50.445732948116238     49.702632154776715
H      51.165626396865413     49.009358836197158     48.720212302678817
H      50.463790164370920     48.269704561976532     49.267352104639180
H      48.613273197536159     50.183533844215482     50.456915469654298
H      48.675238258831435     49.394524599594973     50.450212313172244
H      49.397654658496386     50.741853535562612     50.895625315418798
H      49.427954629851861     51.325462276291248     51.286322977872139
H      48.682993467100559     49.884086775924580     52.409124617263224
H      51.370463497731095     49.144309942656577     50.883079049290060
H      49.853604052128091     48.712432691736055     49.711269612846088
H      50.631468122895214     49.133551120326139     48.605568337933398
H      49.088248374728302     50.376644114795063     49.106088586574806
H      50.366509286877665     50.895430353852291     50.214011852073448
H      50.638434269713734     48.104891462160666     50.015165671554996
H      48.921022661268950     50.211746988969956     51.026696803060020
H      51.364066927545871     49.558305533906378     50.385209060666419
H      49.665519600345313     51.032920197548449     49.638957476948107
H      50.604896892210036     50.018103492385784     51.842270406401049
