38
lj38_benchmark
H      50.000000000000000     50.000000000000000     50.000000000000000
H      50.265866107305804     49.698854754623007     50.672736715582332
H      49.754960008572773     49.356101919799819     49.662977444759122
H      50.351817261384511     48.892241944736234     49.460133260270361
H      50.912003457977562     48.732139137953901     49.339355230903465
H      50.527670041107235     49.844213546130689     51.080351267431062
H      50.716990180795115     50.360323872001075     51.215196988248344
H      49.226575998419797     49.217576468016475     50.056136137505639
H      49.702711546052271     48.716379364898692     49.066828606523963
H      49.092071077318728     49.426224451315761     49.555953887912764
H      50.171917742744789     49.206774869020826     51.192366775988027
H      49.453436136638942     48.681859865442149     49.692348387923388
H      48.685038793086278     49.385364671694774     50.493086866567225
H      51.651019169462593     48.718440132691285     49.314771932544218
H      48.969900674418888     48.894789053936627     49.421939364132903
H      48.122282301233248     49.279256903213422     49.934416860521964
H      51.121462394140309     50.864187801148425     51.284691232425992
H      50.077269322487609     48.856848351691369     50.168009439882162
H      50.601159924758029     49.995721783095405     50.313721760508358
H      48.412415240632249     48.710807793420621     50.415451300830306
H      50.644297202549559     49.376006389926452     49.008136000539650
H      47.995561776179784     48.656959798379233     50.894832306208208
H      51.430169577629840     48.573657081744429     48.607885118647701
H      50.804000140075239     50.578217948561040     51.877676491282003
H      47.904889332479428     48.124665966438769     50.936519331920671
H      47.675122111583036     49.271851195291013     51.087830571390441
H      49.341405988459051     49.447020478225838     50.730050896174042
H      50.917085651778208     51.205507472510099     52.251412653835452
H      48.394444649632440     48.262581859420592     50.176871061415646
H      48.370324346840604     47.792457555552247     51.207250527890196
H      51.479255741354237     50.828923825533217     52.602168634594889
H      51.088255509315438     51.358379170892242     50.684876218833303
H      47.837212544362337     49.633861385305060     49.723793781195859
H      47.390795799634418     47.705840289772226     51.255537961244187
H      48.781892122804528     48.143314387099537     50.651349199396634
H      52.017974282110544     49.311494140400598     49.033616103113914
H      51.619337195939551     50.791015799048040     51.535225303191247
H      48.461205029894273     47.616398459136803     51.703797320295003
