38
lj38_benchmark
H      50.000000000000000     50.000000000000000     50.000000000000000
H      49.628899934066659     49.936411697115886     49.401047870813208
H      49.402884443073290     50.378464841272795     49.058452023704113
H      49.980138814419945     50.203391347553975     48.935796625322510
H      50.417112172359090     50.490631750951010     50.054055878145775
H      50.648914176049459     49.899376495743091     49.232856882552070
H      49.304270323911446     49.575870365232241     49.073206981126859
H      50.200821411729031     49.561110120533399     49.575069111021357
H      51.138484745587533     49.396687201780523     49.011496252896265
H      50.367541397829214     50.557856597819807     49.163256527890994
H      50.473309440923259     50.304387450428358     48.334581919076896
H      49.022473234266101     50.927706937365180     48.909140454074375
H      50.178215348090539     50.647089110378886     47.884122276179049
H      51.381204339654140     49.811414519753725     48.626015780503856
H      51.846919910762580     50.183743090649664     49.126405599968159
H      49.604576107519605     49.618184964448609     48.328940413958513
H      50.831650345105921     50.429104877400910     47.524431757868427
H      52.433252362878150     50.545178885796588     49.098212201175947
H      49.129546652038627     50.054601612966557     48.076871191524660
H      52.823973672709016     50.079430342441455     49.507144362637185
H      49.336126697405724     49.738805737688430     49.806713466377325
H      51.213631215989317     50.048579078501930     48.010457333424633
H      49.216926369937333     50.045446791622631     47.396425610538500
H      49.417052501691408     49.966030554697070     50.539316669586427
H      51.596149185812536     50.447975211212352     47.287678392890705
H      50.275874152003396     51.314390586629798     49.101634207745839
H      52.086085034606221     50.205726178551515     47.001016049956043
H      50.867184138386037     49.625919713045519     49.896501663954979
H      50.363027857631394     51.199199398886648     49.809159180513873
H      49.945627161761458     51.688161555275883     49.194723558771301
H      50.558505336581810     50.780579859228027     47.166177065239395
H      52.808069889234915     50.452556936930051     46.746011381266293
H      49.595062258986935     50.026896540712180     51.110695777614950
H      53.265635082978818     49.957099059414638     49.049405829930166
H      53.095796472818044     50.119283980209907     46.440123272363465
H      48.793957644836176     49.699589715302920     49.509235129753392
H      49.896324780210492     52.299417692186154     48.984978544005166
H      51.063480260094842     50.342501610853859     49.855302248419932
