38
lj38_benchmark
H      50.000000000000000     50.000000000000000     50.000000000000000
H      50.062554178054498     50.271840087494368     49.528880506022276
H      50.359116941799911     49.806660300809369     50.646062275189472
H      50.169413049503085     50.322376602271923     48.962910853971074
H      50.609262385041561     49.347204155188187     50.156228337019840
H      49.806142305407313     49.283998313999838     49.957435904589801
H      49.691985908627203     50.183134730943713     48.629507865715702
H      49.791069789606070     50.909817867840644     49.287347339280721
H      51.075251281664237     49.166601808009460     50.063885098088370
H      49.087360273355834     49.999835053732284     48.868935110505085
H      49.805402340775196     49.705667301154094     50.909917283237313
H      51.762014767176268     49.343218173220812     50.044898526555023
H      49.924051783646405     51.164456615887822     48.539221158747402
H      50.598053865737398     50.370428205869842     49.513508934586163
H      50.967274443281127     48.885207177166762     50.501873524066269
H      49.328612196583734     51.444679497774416     48.823481906415040
H      52.005384902453123     49.754260417146924     50.584339611189158
H      48.580581287162737     49.946934165541258     48.715586881588671
H      49.843940198110801     49.590820900228714     51.449269112369734
H      48.718225646187250     51.458482892358475     48.867409859490778
H      50.872188711054228     50.182162757096037     49.059803855554563
H      51.232663573418918     48.727526381234007     49.543882271527785
H      49.758340285994819     48.659767925264177     49.986170102823891
H      50.472747270475480     49.101409417460303     50.854368095391798
H      50.107779980406001     48.550767675374985     50.757650737159523
H      50.661711740640058     49.159409866973341     49.357761249585984
H      49.638441128028525     48.925067731179837     51.332531678921605
H      50.562806118978422     51.378764559032206     48.145030549640566
H      50.645540739970954     50.055337121365930     50.175652767024062
H      51.628118053537193     49.942604022241888     49.813860243697050
H      50.712773766563650     51.308086888051378     47.638375324704569
H      51.272783788778469     51.530465606095973     47.863952698076247
H      51.340669489883503     49.433266484507151     49.686430858041838
H      52.129522041033589     49.945762053887712     49.721953607375511
H      48.603873013186018     50.408108347636194     48.063136098091775
H      52.273604323175597     49.281411546076455     49.739044427129791
H      50.743739692793504     49.488369463979971     48.744893141079260
H      50.848279157566076     48.905124243752155     48.776842041404890
