38
lj38_benchmark
H      50.000000000000000     50.000000000000000     50.000000000000000
H      49.973160398355247     49.325337932775575     50.042552510868127
H      49.249082238911065     50.215423647481636     50.024130967121678
H      48.563835632742943     50.276783387463361     50.121961782866975
H      49.148128565740457     50.921836146680327     50.256753126312518
H      50.755880178577101     50.237658441771814     49.919026146989054
H      49.651344233798369     50.858902908798107     50.663041774976946
H      50.716940086136411     49.018406968456915     50.019382452009140
H      51.416743248311718     48.945656426763968     50.390641717127501
H      50.141468759913792     49.130405631943340     50.625014146709169
H      49.537190928097672     49.820993189066670     49.853375636157118
H      49.048375551586780     51.524456037011120     49.893773157730024
H      48.984226894771311     49.924262829193133     49.353981697073586
H      50.318424914336092     50.846069454839146     51.058709418174402
H      49.200905617750777     50.582485595979492     50.987803049975263
H      49.935552150384552     50.446034598198040     50.817716847101373
H      48.742029403093667     49.417514757339269     49.024268872360068
H      51.163321296469924     49.619702399343929     50.463813848002239
H      50.207103216427853     49.288980769016483     49.606352763003216
H      49.003394528756090     48.867345370347422     49.481711884634827
H      49.431605854993826     51.605234327862746     50.244406660344396
H      52.094673400550064     48.756295518399639     50.474064156655899
H      49.325857707426238     48.687088545852049     48.850181583461072
H      51.697586736482791     48.331243276949941     50.606314883157843
H      51.017120919653415     51.143710438212224     51.130968039081253
H      49.900721507503810     50.235925327196455     51.348859704450263
H      51.093989948373043     50.669006166732650     50.733674522707389
H      48.980351067276452     51.309533900382853     50.961801362595288
H      51.294468530421952     51.688443899416555     51.434698892553797
H      50.275027952387703     51.140300002742286     51.740087464119327
H      48.940702821590271     50.242065407637817     51.303705077072735
H      50.748796742351779     49.134351946882134     50.584377892144573
H      50.842363077700789     49.900020292051806     50.894766655779215
H      51.010243632450887     49.034488090904247     51.025761431522263
H      49.612522244538397     49.053749188263559     48.360780353960237
H      51.252184259632102     52.237417118804608     51.682445279268634
H      50.814702124324917     51.879660984374432     51.771178906675516
H      50.012126981655840     51.178600891363686     49.950341428089125
