38
lj38_benchmark
H      50.000000000000000     50.000000000000000     50.000000000000000
H      50.566372238589494     49.881432802775485     49.745953273980476
H      49.602258370314829     49.727079271527515     50.609739500304762
H      49.782106937923473     50.328091870653708     50.458578642539322
H      49.588497812315218     50.878443699997206     50.459734697242759
H      50.338606362074522     50.420626481264399     51.002094199783997
H      49.229418763362091     51.514906355601141     50.596210590461347
H      49.535915830466607     49.973608709146404     51.242018324524878
H      50.508086687087633     50.728437746464110     50.467007895576558
H      50.112083779490206     49.480562149903790     51.334175134729875
H      49.343207597794226     49.067068623074704     50.427990632097845
H      50.748254857777020     49.333147493540970     51.559125738709646
H      49.596545371932393     50.381072844243327     49.478399402647376
H      48.891731948368339     52.109549573912787     50.693478772658374
H      50.116568192310282     50.436417104044196     49.628638621754206
H      48.909737408887942     52.274235685317436     51.254487953309678
H      49.489557705740722     52.417406522817430     50.447804469877283
H      49.667721852924750     52.176510314937232     49.932679601427978
H      50.054473553754491     49.103865253664281     51.861462352409760
H      49.203781982154538     50.116796647885572     50.292142902617236
H      49.150901433965956     48.825455094019070     49.926994203104769
H      48.900147400467951     49.836179553174937     49.910491719619117
H      50.533128994174881     49.859918531367228     51.087301735519681
H      48.847096191425180     52.396646102266040     51.834546960113656
H      50.853264743116355     50.219689533646267     50.622315106323271
H      50.342860444237566     48.734592717879437     52.317806070062666
H      50.546267268555589     49.175157452731959     52.768492116084317
H      50.532280537517657     51.473857885524907     50.695810390396666
H      49.517471987632064     49.385178462527449     49.830053641507035
H      50.996784214709443     50.714327436093427     51.277402969089259
H      48.323724673196175     51.801895004822740     50.416551260651609
H      50.050368843533008     52.951811473694121     50.323684214075172
H      51.146510584756371     50.258463655425047     49.894520669786004
H      50.860677990535443     51.793125409574827     50.185470052369716
H      50.626371930947087     49.028255974999603     51.018834421856859
H      49.376776849824438     51.921742371598036     49.333018635355927
H      48.382687988954643     52.157562618437652     51.486292843158054
H      50.492716000673724     50.683484218261732     48.964878611840142
