38
lj38_benchmark
H      50.000000000000000     50.000000000000000     50.000000000000000
H      49.790413212897775     49.854173348682707     50.517273309270635
H      49.334079884960836     50.085669061253007     50.241721952612394
H      48.887726284951832     50.620882148248953     49.994231864418325
H      48.972710090859024     50.614577919000048     49.327271765047470
H      48.491634732741630     50.788199901631856     49.463798421690626
H      48.681242215908171     50.927234953226858     50.399308462746170
H      49.717213405184452     49.101461506195093     50.315505093932472
H      48.057914092276221     51.103056043601548     48.921825193739863
H      49.346819558818964     48.489999246743132     50.467149395963659
H      47.960083893808843     51.477848759705424     48.597899194818957
H      47.417805415977760     51.565775197330730     48.469029991878152
H      49.880742776588939     50.591055946356477     49.753794408448790
H      49.574407103610575     48.960589914290921     50.891151907474416
H      48.479589166186436     51.506945535400902     49.174355399526206
H      49.041831596129562     50.871572046349819     48.783278866311157
H      49.020393067910554     51.304157699122563     50.026113677815403
H      48.802368755944038     48.984480261478801     50.628145352717581
H      49.678277858170709     50.481252281676802     50.640082719458711
H      48.254596451743296     50.901423896079947     50.984317384273062
H      48.458604176689704     49.276765444230207     51.123715785747642
H      48.544531654391292     49.746265994764244     50.903423654750242
H      49.314537106458339     49.710100737910501     49.802890273802582
H      47.864985117562505     49.212791055711079     51.344015435801602
H      48.971750692635808     48.231604190574508     50.896889490550620
H      48.201708384369347     51.587601576638463     50.604436057656990
H      47.552032884794784     51.781407260348210     50.406052159862789
H      49.243132253555999     48.123346393691733     50.007241905592949
H      47.370138866100220     51.805899867688474     47.838102953001936
H      48.740106416394667     48.542540128695308     49.944005440969399
H      50.047438852826133     48.348026205835616     50.823843470345857
H      49.849106502616891     51.049940788248954     50.871772168110013
H      50.353334379145700     49.080148206378084     50.130803340607571
H      48.573614412326641     47.673139251533989     51.068411380842150
H      50.073958670450793     48.402232424410400     51.466471371599205
H      50.749534998815420     48.491090818606885     50.187388304443928
H      50.747863976610937     48.254654164754555     50.764247106860807
H      49.012268042485665     47.656955510931894     49.484009873532862
