38
lj38_benchmark
H      50.000000000000000     50.000000000000000     50.000000000000000
H      49.963969506676058     50.034786974718756     49.458904161523179
H      50.457967584513874     50.074302345764593     50.213257396466418
H      49.916094501054197     50.520480054036099     50.349245023775360
H      49.708602039678460     49.789267473644216     50.405582464931946
H      50.159251922469096     50.669805490658526     51.005518711456510
H      49.484710607356760     49.422087517647547     49.893935990613024
H      49.030344132333859     49.642717258401056     49.915279105212299
H      49.881269244191742     50.582668196219032     49.015602800747487
H      49.634410322275535     50.915349323994896     48.517941643702770
H      50.848889192364091     49.999313377473250     50.671538808765341
H      49.435830026178486     51.630704445205211     48.667040607978208
H      49.808952557900767     51.199456432803181     47.912284098288964
H      50.462461392121774     50.596875758453628     51.703096520748602
H      49.759886923993633     51.659513453124461     47.334449390358301
H      49.949076843240583     50.883545159111009     49.983819762324543
H      50.031445522189443     51.149771306446297     47.077353050921722
H      50.417671478024459     51.575906655730051     47.197922525659273
H      49.858291975004349     52.038639447651754     48.520073629542495
H      51.096565290689725     50.095525256664686     50.185451403789941
H      50.890723760184791     49.232182580243986     50.638806314347747
H      51.239341269236249     48.931701920536511     50.147878786056545
H      50.194841495038467     49.428441730440767     50.338354042197807
H      50.360923302572672     51.371292230424565     47.831950227913609
H      50.318520801561306     52.154666743488846     47.631521337849307
H      49.190042912880010     50.458248416433939     48.913357477292791
H      50.120677868332351     52.609267569776996     48.715746839378347
H      50.838006186539701     50.504464825090977     49.684237054986873
H      50.409096059806664     50.688888031642279     49.494797851898035
H      49.866426507074436     50.666893456597478     47.463851383106345
H      51.771051770832045     49.470744003176080     50.407073115413340
H      48.584394529326183     49.822465641453576     49.501028300696817
H      51.820346030803194     49.626687553702162     50.899833689179957
H      49.919485041493019     49.681818538249338     51.077703275025222
H      50.976477165266857     52.117578429266231     47.152601081809898
H      48.139228224863579     49.309569968842126     49.613413606977780
H      51.089474025591429     48.877956904456191     49.581542791880651
H      51.236736619420924     49.826226046474609     49.506354145564657
