38
lj38_benchmark
H      50.000000000000000     50.000000000000000     50.000000000000000
H      49.737560329389609     49.613448670084267     50.496987306596040
H      49.831848921800855     49.342686265160744     49.944474524891049
H      50.551463552878381     49.179214270484600     49.921670703949523
H      50.508442996467437     48.916614425244823     50.596604459906807
H      49.705036620002730     50.044498130726979     49.330309094861327
H      50.898893276109767     48.592052178976907     49.603174982458725
H      50.314092354570825     48.547405151931756     49.463708172874924
H      50.189533041415679     48.259980964265949     50.936376596897546
H      51.339038614467228     48.785581658719728     49.068928176184890
H      49.863199456916156     49.682265939238469     51.146721356228333
H      50.393516727131072     48.265822132470348     49.904761106299489
H      50.272187429678119     49.766167473853102     49.557413284250551
H      50.622527172496355     48.715215331087023     50.084567811734544
H      50.569835504476863     49.835232049819304     50.963888300580088
H      50.995215043307240     50.004376709812853     51.579674711205115
H      49.835459368579791     48.856637459998808     50.815657063289777
H      49.301221839029758     49.304285625402997     50.512343804894023
H      51.091895753874169     49.052882295996319     49.972502988417084
H      49.745329742413553     48.145792740092787     50.057666220907038
H      49.703003533084967     48.907519598900244     51.437714165921534
H      52.122054494329660     48.739675628850691     49.121087723939631
H      49.211401659969532     48.866261113728385     50.270487280841451
H      51.037389267140746     48.109066162954839     50.077597012033841
H      51.655683470782449     48.347403794688574     50.348419102973295
H      48.962074876688661     49.405000114783391     49.805032937645393
H      50.671222943999751     49.621549409201322     51.452034670094676
H      49.816174173532218     48.729585451346701     49.506310410538930
H      49.345131206435624     48.950853953803438     52.145932507233745
H      48.651570628891243     48.870095850074662     49.962475435958687
H      49.569977258447594     47.500683061763510     50.007411788036841
H      51.295470477700086     49.494940800730085     50.495779786602718
H      51.705126801127591     47.767438806858280     50.589417058328138
H      50.572825130230683     50.388342697622470     50.883341313824964
H      49.703595170194539     50.196289077074930     50.746234595701466
H      50.129583806496861     47.650015753039447     51.430282700132615
H      50.441587768574095     49.762875177321504     49.052034575984401
H      48.817375438515903     48.723509891155352     50.578646714585190
