38
lj38_benchmark
H      50.000000000000000     50.000000000000000     50.000000000000000
H      49.413002678992967     50.410019665686228     49.752856843228386
H      50.043912192687138     50.555908087066030     49.929382652424692
H      48.760631726038611     50.792766570132436     49.808460366509486
H      50.683808407696290     49.768271644317288     49.654039313004070
H      48.434680909540255     51.054976202219997     49.193700317792434
H      47.942513584457480     50.931786911770452     48.975079568964560
H      49.525471981124475     50.596882576660590     49.302964888341521
H      49.014760866355488     50.086982021270835     49.687976577980038
H      48.941332426562354     50.783253062583562     50.304837390716642
H      50.579050329062952     50.045334790180100     50.138522778045136
H      49.765001649264349     50.762589961426244     50.301656756859018
H      47.440834148977800     51.181400995480139     48.493116580874457
H      48.614389777025011     51.283351088857238     48.542307944970410
H      47.119296670729653     51.128112806398136     49.037112541625952
H      47.415790908208677     51.470553006063483     49.329866227146802
H      48.301814067939176     50.437341561537615     50.366266204156432
H      47.973173986641434     52.015478422756004     49.186137073310405
H      47.579189847963747     52.505800359317455     49.033187848254997
H      46.950750007662094     52.066311910779753     49.535301876555302
H      48.210031272274058     51.138883415338285     50.144285264263900
H      48.035714465329576     50.431482617272621     49.810548868098870
H      49.055718323373299     51.342760369627626     50.324284534208267
H      49.559098681806603     50.879997881459630     51.040034118766236
H      49.115097812429518     51.310959876400673     49.180660329559693
H      47.251247315228227     50.913121098673571     49.618138647502619
H      47.690690593015617     52.273279813942210     49.509500004079165
H      46.554553883238249     50.747943623504028     49.603655468855223
H      50.463279673795491     50.294832653032316     49.641527663991518
H      47.293859234823408     51.358482567039026     50.229210968594401
H      48.916635859441286     50.665546982962354     48.382528133126506
H      50.908590768478206     49.865322208537414     49.111868495229814
H      49.126364482033672     50.294300509391519     51.326798158877459
H      49.690697025619691     50.353493658815268     48.595495798870992
H      48.475706477845634     51.635686355756327     50.094610420017929
H      49.108638295814792     50.800704201771012     50.799274375293365
H      48.924051823083211     51.723950375456461     50.757341245401541
H      47.256841456400714     50.177184500812629     49.837136142593451
