38
lj38_benchmark
H      50.000000000000000     50.000000000000000     50.000000000000000
H      50.262780983537397     50.662958229502571     50.150935107843800
H      50.421704515173268     49.768746942697888     50.453792953198068
H      50.385375901497042     51.226569519794097     50.468416913367101
H      49.751896444769727     49.471944158653947     49.748749597736328
H      51.001541055482761     51.043275326709185     50.120893368903232
H      50.909228134510876     50.131098082203948     50.043750573267978
H      50.302437538317768     51.136643014282846     49.923010173804641
H      51.413446114898427     51.582340045105127     49.789732473115379
H      50.177283093113346     50.372290463204266     50.661651832120199
H      50.308062546486269     51.076403903114354     49.284854219509810
H      51.716401525053449     50.727289744100503     50.091773993042644
H      49.523130796285507     49.229068304846685     50.345334340082331
H      49.205897046132435     49.992613872680920     49.644457280627137
H      49.650644046822656     50.898801144813092     50.523431773896625
H      49.677288481215747     49.918518744262173     50.866967991598479
H      49.899049639345449     49.268102234132407     49.189856405707729
H      49.421138079947788     49.150114231363972     48.888068691245664
H      50.085517197704640     49.807619907441627     49.165986105626907
H      51.348970816949041     51.902480184271113     49.101693128978539
H      49.324624193666338     49.523843227578986     51.081986076723958
H      49.124843695670791     49.679434797959068     48.370439444635487
H      50.003273586277295     48.891206947512984     48.688154826891193
H      51.222882201157816     51.416052857854716     48.996312567387598
H      50.703315549273420     49.330019358979698     49.981457539781459
H      50.127847529770342     49.341139079542046     50.834004122703739
H      51.825184730480956     50.951402075663665     49.104038506168280
H      49.336381962348163     50.491674365787652     49.351386554362250
H      51.047921140561954     50.573465749930364     49.731973422101419
H      50.763919968328139     51.090460876598669     49.001649079518870
H      49.196954331153790     49.558514052621426     51.803267962080838
H      50.245174314969901     50.702415666507406     51.329416145535404
H      51.733484729528818     51.714344665079530     48.654011049272185
H      51.252716190888471     52.165309421873715     50.108225803039090
H      51.179635695245608     49.024417123962273     50.411996167464395
H      49.925290943342915     49.350261453311958     51.384529781699342
H      49.406233786114186     48.931054529647000     49.890001352740029
H      51.563680254011174     49.191947895639316     50.040100608666371
