38
lj38_benchmark
H      50.000000000000000     50.000000000000000     50.000000000000000
H      49.453335144846378     50.196384317086626     49.761632594758026
H      49.738450713896576     49.877219350119269     49.343563703680310
H      50.221604032020039     50.077823521804383     48.810051633174680
H      50.735499772811245     50.395684579278537     48.861478347059112
H      50.510102035092821     49.926061369693890     49.541473883531566
H      50.659563142878433     51.099267614192939     48.486027468090420
H      51.182188927592918     49.770355164331065     49.343369528817561
H      51.552143609007622     49.731032763834115     49.964480532023195
H      49.581125989681802     50.444298629642454     48.504348884791121
H      49.129823188283986     49.836075609448713     48.447049961082215
H      48.950366797499420     50.494593143336012     48.689194071895955
H      49.276035682391864     49.511547653262824     50.102298236482824
H      50.289192147100387     50.102852568969489     48.197602278042645
H      49.122652368630185     50.040728391681768     50.501813506602346
H      49.087721672972400     50.131683800139633     49.364270362054988
H      49.219541016502113     50.742665361614613     50.583031154488879
H      48.891863098366002     49.530965487631704     47.958374481362689
H      50.752435958358795     51.764285323003676     48.706869715019941
H      49.329821984957135     49.631518028259684     47.500765019251801
H      49.659600096961064     49.922680786880996     50.582737248517397
H      49.904520742912624     49.346739150543264     47.370300227149812
H      51.340104183312988     51.977585183832133     49.209174349622330
H      49.261371289319293     49.416946065649064     48.996215716173587
H      50.501502867565762     51.813203576837850     49.174050564650315
H      50.799209997352833     49.409378138163966     49.493572944921134
H      48.969103642151353     50.544883469893108     51.052391753008870
H      51.184052328825587     51.174027868747316     48.151054656594354
H      49.526662725591493     50.451069805443268     47.810032619186238
H      49.010488646504491     50.269900908116284     47.374591393716258
H      49.805239747831187     48.875516568602897     47.913280525542476
H      50.125778704116058     50.673799091984215     49.959347827734156
H      50.425394493977969     50.134444298830154     47.446556879072396
H      51.859014641477998     50.071394292379836     49.221105257474093
H      51.164308151749395     50.606406933005083     48.563064119982080
H      49.786422499079293     49.472704121440771     49.995136307958347
H      48.868663447501007     50.694023247624393     47.103878061321616
H      48.191651473085287     50.527544238552800     47.053162852773461
