38
lj38_benchmark
H      50.000000000000000     50.000000000000000     50.000000000000000
H      49.911238671596244     49.366996620969509     49.823206238179253
H      49.567632730556682     49.140368200295136     49.290055930736109
H      49.929572907092528     48.573393243614952     49.545075633228251
H      50.084135248099138     49.546676783615816     50.267220055110343
H      49.155323279350050     49.070025278663437     49.665573371607785
H      50.454858694704228     48.355935210169470     49.028631361906854
H      50.118701140459542     48.918842586794739     50.301713532773874
H      49.974164823268381     48.221781358869052     50.491017735811930
H      50.323614278763515     48.045356663378577     49.721031108207704
H      49.595741355640712     48.440602885650470     51.157467608523255
H      49.492673657581044     49.034307644300881     51.634355436308631
H      50.638096683852254     49.160960320152000     49.695698097874249
H      49.683811589999486     49.376837115060923     50.514617479786118
H      50.782724898909443     47.810319180116842     48.822324900519355
H      50.837025675594496     48.451939290425315     49.532397471777159
H      50.353814167791469     50.204994614686285     49.599965586372591
H      50.027703844969103     49.504030169733845     51.915417008914595
H      50.203761936745728     50.128615093197567     51.753327425081437
H      48.861676046418651     49.139129046207778     51.356812272559068
H      49.532847897290644     49.730597300674695     51.639246687803549
H      50.457234059923373     47.861687454332525     49.208333913354963
H      48.781848527275791     49.845728212754231     51.078936104265203
H      49.040902668824032     49.025700578046298     50.567843507662033
H      48.227513504762747     50.039220748757096     51.005353800736096
H      50.147257880413989     48.497172153026881     48.394301139005023
H      47.909351378529060     50.071329450762555     51.503293108677440
H      50.634360674630003     49.469412520484902     50.328745574795391
H      49.045260956273211     50.203584352926576     51.667010466396462
H      50.056496367215928     50.712158615665409     51.661142049476915
H      50.103774359634883     50.617482664429183     50.085294432217275
H      49.403471187982888     47.917357751525877     51.175337768217496
H      49.178752578662504     48.522358810021224     50.410918587279795
H      48.974782927959005     49.813984078029520     52.278861418845082
H      49.840519944606179     51.115777208773736     52.164306479031254
H      50.774113538519337     48.908050441565265     49.191802594771787
H      51.514101120420207     47.855098782610753     49.090342223027349
H      47.212880423355521     50.298740238079290     51.543758628968121
