38
lj38_benchmark
H      50.000000000000000     50.000000000000000     50.000000000000000
H      49.405049314374118     50.459019822264906     50.262577703243409
H      50.446758813036311     50.001896081306910     50.450248857426111
H      50.845510931752742     50.660641974329678     50.286266497951146
H      49.218533566387393     50.434488613108634     51.002496277759228
H      49.981473143495421     49.762200586175311     50.921880584735732
H      49.918179037680041     50.926042676999870     50.284946398330717
H      48.793748261505534     50.095380437398696     50.024927000957419
H      49.413533334016947     49.469670838108556     50.893086255753985
H      48.554924512626044     50.696321679306173     50.837321942164209
H      48.635257718338174     49.386396872554947     50.192140988016320
H      50.937295753114164     49.963462128696868     50.621015318630057
H      48.728170937343840     48.732062959519219     50.316707186518975
H      51.047802610430708     50.350842929725502     49.852515728474444
H      49.235086433809705     49.977598627403623     51.313013078835667
H      50.903528366902393     49.682898357900228     49.919777932471213
H      48.474377447337538     51.214430381478344     51.170139771331201
H      49.148652182258481     48.261808318552546     50.168368192975812
H      50.880856383815086     50.641538245553235     49.316404432499453
H      49.062946163614590     50.172347941976049     49.485125262990394
H      49.873353834136346     50.754926563366297     50.869512771057110
H      49.278472820641397     49.602006283971669     49.279743123139035
H      48.341396692560565     49.893072715851602     50.258756730729623
H      48.168829552298128     50.296644213377085     51.012774294184851
H      48.717751447075948     50.821547014909903     49.389509787160335
H      48.874546556506239     49.342098103946114     51.485338167875653
H      49.632588442714578     49.089176788009006     48.864957545280703
H      48.304712034638250     49.803075570714370     50.868667349309575
H      48.124077268445646     51.483920445027870     50.520819934360290
H      50.063493780513838     50.397056056389474     51.525785567786372
H      50.093123217304317     51.299803687866728     49.807758955454538
H      48.754568947513931     49.831088942838228     50.647859558311289
H      48.193602056211233     48.570979943735026     50.834417386044215
H      48.351182936050506     48.056149331278434     50.599791747736923
H      49.569606083932108     48.836263020328467     49.973130800338176
H      49.631391479052716     48.834301663230875     50.993466425186810
H      49.056413860268265     51.260298329714452     50.980283138163429
H      51.637314126972967     50.264152082457827     50.038983148597616
