38
lj38_benchmark
H      50.000000000000000     50.000000000000000     50.000000000000000
H      50.079651747242252     49.599398538379624     49.602967354962352
H      49.450596203382119     49.948540892522473     50.245549204615514
H      49.415329146696990     49.436262861896999     50.293942440103301
H      50.055715889504192     48.808839129097748     49.713552545899525
H      49.467305550167168     50.434940517173452     50.708994520577100
H      49.863149384103316     50.617143203119454     50.432209157145337
H      49.540272204773935     51.039822214859235     50.366680369822134
H      50.683695616254930     49.300783721963946     49.188644973802987
H      50.409788288190271     50.532294069793991     49.708894132012887
H      50.400243023096309     50.421833390258385     50.408411469573203
H      50.469183807843159     48.615869957115699     50.251119451077059
H      49.429162072883642     51.114014879330831     49.878898091791079
H      50.815756022509802     48.716108395861944     50.603383236435739
H      50.159287375658316     49.909664970879945     50.670247711287878
H      51.306273324853024     48.437135661950521     50.371771839589968
H      51.470864368880633     48.438221468579776     50.841502103298147
H      49.567699048010446     49.031013314013499     50.592493422320992
H      49.146967138118598     51.405824429874663     49.431563014678211
H      50.771202187638359     48.408026164740889     49.649740808861125
H      50.861150580432287     49.258429323690578     48.474307945409620
H      48.997295502126903     49.359131282479048     49.933704224480266
H      51.124506103257453     47.938956135965675     50.554124329210261
H      49.534359244808044     51.767387632821432     49.046276391519910
H      51.174986817212748     49.118743330580116     50.047029144874628
H      50.959492188121907     49.774772517354705     48.261190612139188
H      50.046648489429131     51.158633817697037     50.577671853208379
H      51.240189470678224     49.551028231242825     49.283757849307172
H      50.808537259229325     49.354496102833266     49.697028463079270
H      51.631862582351410     47.940778244753865     49.928625195200013
H      50.588075180584710     49.496338408375038     50.429586932518205
H      50.519321365718248     49.871035269433790     48.041132536749288
H      49.055072423841239     51.557381859309587     48.581782509536531
H      50.857957731332391     47.831322317723931     51.265759869224659
H      49.807707571857641     51.624753516330244     50.271474981595439
H      50.247222260286946     49.012470777559997     48.982088210918135
H      49.843311564428397     48.547038300032519     49.010725496818552
H      49.578604533497462     51.601005024906108     50.760486078752422
