38
lj38_benchmark
H      50.000000000000000     50.000000000000000     50.000000000000000
H      50.189773843910793     50.719678775609673     50.019417454440031
H      49.716057723009868     51.258334417212154     49.888852780753894
H      49.738504288704824     50.000148301598585     50.525633089753086
H      50.649134236477074     50.251320635811616     49.914548653254926
H      50.274544313022027     49.782156039740926     49.600611134460465
H      49.558196083169136     51.792859844231401     49.437645851940950
H      49.717972139572510     50.847624143080147     49.421866069354742
H      50.203710434783510     51.221551206162246     49.237487694528220
H      49.569512264306951     50.704891814178943     50.148639957631460
H      50.134849697254722     51.497618602757626     48.775414428977832
H      50.243157152444191     50.369742554664008     49.262667841322845
H      48.988335549214419     50.274940459397953     50.612019271660770
H      49.763511378880800     51.307288107118993     48.375588368408160
H      50.030575880211472     52.155233824117246     49.766911148231813
H      49.891791084560474     50.881511066891612     48.917165521615125
H      49.669047188864489     50.000750573244311     48.864088598183940
H      51.134295062539628     50.770522210876017     50.126575768754783
H      49.383085260252990     52.313902085336757     48.918018076749078
H      49.463795053629539     50.901670208683115     48.265261068745190
H      49.741772586805226     51.330793235579037     47.570406833738332
H      49.375368068615529     49.329391458561098     48.812587816467811
H      48.795830751951293     50.844454379000751     50.119467596297135
H      49.207584530788111     51.413655370115833     49.386585307521116
H      51.506406556148669     50.934607409009516     49.498369550986531
H      50.072831882256921     51.001620936081920     47.264213313173002
H      49.718777184651628     51.575689355411448     46.833742966568856
H      49.985031537369615     49.458664237149350     48.340358116414194
H      50.499281326467958     49.761475123656425     48.693547603629654
H      49.359572062548942     48.889119661092060     48.195251629742820
H      49.811120831384230     52.112577187382470     50.319672522733811
H      48.950360599400000     51.624723933752847     49.866715885275873
H      48.991432207977404     49.446548852627416     49.110340373890644
H      49.349413416499630     50.582263239681907     48.719971269059755
H      50.798279687220173     51.102429926412874     49.016429539543182
H      50.984024003242368     50.701320165488390     50.667092719825504
H      50.240708189518934     51.646500891658896     46.690246994125026
H      49.938311735165378     52.377925778037977     48.803844509489721
