38
lj38_benchmark
H      50.000000000000000     50.000000000000000     50.000000000000000
H      50.638793742059804     50.379229658822581     49.985857812442539
H      50.134785779754793     50.329817453866937     50.569910327738228
H      50.183465053916343     50.253313919607507     51.296236522777669
H      49.766110865860959     49.512359478769582     50.377156968564243
H      49.388948375525509     49.854623649967607     49.972793387450409
H      48.947470368722854     49.390966864442774     50.309307036707636
H      49.485949066260446     50.081702903522554     51.218555243508511
H      50.617260223807179     50.365930392481083     51.073342970183134
H      49.330410325500630     48.812312466976870     49.956983808647102
H      50.287430160016719     49.350632623806014     49.793834270745180
H      50.793864829678220     49.790629784514046     49.580402072398449
H      50.287048651537418     51.084367204675381     50.441934264797574
H      51.117849871297445     50.686046978838945     51.587882761338633
H      51.544971889163271     51.072474800822647     51.806850391808325
H      49.064819032386652     50.006877097658609     51.832426287869040
H      49.890176020606091     51.374453927745492     50.356312223827125
H      51.151002258681316     51.383763509287789     52.354251405389874
H      51.958122985292633     51.354180430094146     51.258135086134821
H      51.009537527228836     50.846669340247502     49.960026219472780
H      49.427326695777559     48.861138219431759     50.567179653834657
H      49.435219946917144     50.616007228372126     50.181273834800685
H      48.984215705574464     50.313632547131640     50.725129708711734
H      48.448478542519005     50.389917847998504     50.714277726016803
H      49.782942661245052     50.598191269199198     49.649668340287363
H      51.318781699987539     50.002217021537327     51.352697911786585
H      48.971073419064211     50.020644195530970     51.156474232207728
H      49.830561902115775     50.946630141673658     51.050416257402652
H      51.099118295228550     51.605552476137689     49.951665592542483
H      48.829739589163651     50.791534535814371     50.299082581134599
H      51.149571437725044     49.247148782002348     50.007767634123837
H      49.898896579622694     48.372087223049526     49.658405940251725
H      50.142852994306381     49.654200210598958     49.202053249127118
H      51.139731733554981     49.027290812101469     49.297052857706078
H      47.745798244193359     50.581984772547280     50.946547588485387
H      50.853262831244152     51.186253121267775     51.519375701080250
H      51.204803448536559     51.173018443716110     49.289655068354655
H      50.486355051496098     50.363758472636093     49.392236259903115
