38
lj38_benchmark
H      50.000000000000000     50.000000000000000     50.000000000000000
H      49.643757383262866     50.455023142980920     49.757877906187524
H      50.578144888756917     49.909504354580257     50.419144346654129
H      50.245283659278087     50.223736236718878     50.649227924463872
H      49.418676414922508     50.435084536443703     50.405481654613780
H      49.627744971602795     51.085926557210726     50.666255180510383
H      50.288344572559772     49.491586610281814     50.467344071922483
H      49.736416977557859     51.220742878300882     51.233622778850986
H      50.287137415322682     48.777419841288022     50.582212121247522
H      50.329111786707905     48.231929478371768     50.641391212532170
H      51.031042872258894     48.311924413947992     50.634049595757482
H      49.530262277325740     50.870491749928753     49.416873697303032
H      49.213923668421536     51.192826347824045     50.320992235778910
H      48.897136110443974     50.326587545070787     50.671801855601323
H      50.753637814003319     47.802081251923696     50.211372477602026
H      48.825799297360959     49.641426912953648     50.633689520625772
H      49.132221555493757     51.963968850947253     50.196875052387071
H      49.005055346214576     51.051898009932110     48.852627315922042
H      49.915472631745047     51.494707241402899     50.317857321357273
H      48.997904836630688     50.781185612764197     49.888941665049266
H      51.113869241506592     47.393802293703317     49.656913728517921
H      50.376936195589565     50.141963185438620     51.304763342857854
H      49.301052382719284     50.056445871320143     51.010632248095725
H      50.669143290986341     47.959869195577163     49.341824372364840
H      49.623279231472637     51.881675110093973     50.650559817383460
H      51.078950906783419     48.316897254500304     49.070393532928222
H      51.386532577488772     46.744293912179288     49.673506077969044
H      50.297233452133845     47.455560702739227     49.199216566076132
H      48.628734403493240     51.720173831588390     48.770705597838521
H      49.712774655939597     51.955939678482899     51.381517988105486
H      49.249381466302417     49.993318152071417     49.378155779723102
H      49.665393768694955     49.260035959075701     50.090645752064425
H      48.097916416224699     51.918357752216764     48.624660339770578
H      49.881895287963765     50.242811535318822     51.292172890481972
H      48.818083313481033     49.285506013600120     50.257915929542186
H      49.434001299568230     52.665886860228831     51.398463986653177
H      50.933518817430198     46.732224954953587     49.149828243204240
H      48.628986336686737     51.094832355566254     48.398985779690648
