38
lj38_benchmark
H      50.000000000000000     50.000000000000000     50.000000000000000
H      49.436695227245757     50.401009513202290     49.743905093424132
H      49.017082396603591     50.937629595597144     50.063775514203769
H      49.308940660098500     51.456535111520246     50.562743274559651
H      48.693680218737903     50.272880549630358     49.997935112599720
H      49.007623604237487     51.474270385367909     51.148777662783090
H      49.174077447522983     51.613606101763764     51.884818624407934
H      49.898379867480315     50.561979589319961     50.467877989398730
H      48.426754349850128     49.717392778490257     50.189876114158565
H      48.835125343588551     50.686329738348327     50.505850227839908
H      49.459214269149001     51.485893704413272     49.732294374723345
H      48.919669592151990     52.133319222046637     51.693158761187583
H      50.144840637636904     51.359123932600184     49.998908148991241
H      48.188954657852193     49.739124289707561     50.942327481975290
H      50.416560972315359     51.804855294422183     50.600771279198248
H      48.727440049849918     49.719184989397995     50.631443059398656
H      48.365731757431625     50.054997475453376     51.544765776236567
H      50.542177366603532     52.179861813461258     51.036053810177805
H      48.514085503339615     49.181658233194739     51.018608349911545
H      49.312777771946571     51.319694786928039     52.536457517818960
H      49.687838586803203     51.705471454132415     52.723743261936868
H      49.766030779006634     51.139039237381922     52.271468226091812
H      50.513148529256732     50.061149520129327     50.372302670984133
H      49.415742579228073     51.868857434992321     49.201734070268699
H      48.730867672640997     51.009341039352641     52.771465301148204
H      48.468181504284651     50.801931048860908     53.253161506000644
H      50.564815911111459     52.059610432717932     51.562122461476541
H      50.861320417004578     52.708327740829986     50.712477198269063
H      49.823200265802015     50.399130099166335     52.416378884540983
H      50.318371442857803     53.007611425413302     50.864950084200565
H      50.606709197178652     53.470860947653946     50.802070530286393
H      50.946452710411052     49.561010150598719     50.669997727483349
H      50.208176081081028     52.029531652743366     53.136543636224118
H      49.176571022810158     49.961974662842742     52.218505313264359
H      49.502807559698944     49.848555173971292     52.702476598274870
H      49.335591996209807     49.945532894738840     50.036003562029634
H      48.512653708102405     49.077205022478246     50.422446530470808
H      49.768174420928858     49.894303360027060     49.349491552119197
