38
lj38_benchmark
H      50.000000000000000     50.000000000000000     50.000000000000000
H      50.418069036646578     49.989527471709884     49.698035303631841
H      50.328668244714159     49.340931853936397     49.724906660876727
H      50.974342331124248     49.691969375853468     50.132945680076176
H      50.383444028660143     49.440404381893593     50.315725804958589
H      49.830042122886219     49.050581200719257     50.297068349175817
H      49.813882073965246     49.488418665691619     49.127686907697431
H      51.438000518886106     49.248126040135325     49.961699300346631
H      50.824266672318018     49.034361377956209     49.718844093830306
H      51.900612199278143     49.529035033388396     49.609234756063806
H      51.020737327159239     50.372675383942628     50.219206558240508
H      49.421902649145792     48.818913779116819     49.238014206449613
H      51.665428791090456     50.577308682124439     50.301394845723095
H      51.434840607011125     50.935899357757584     50.046541055247268
H      50.602999086728552     48.648673878448882     50.092647287336760
H      52.313623968547496     50.013905583800643     49.301198433512518
H      51.752482209480462     51.613186601790780     50.091555005275929
H      49.827034834979344     49.562460033314700     50.355198194655244
H      51.833576080475481     50.206085840244420     49.787090466583869
H      49.936125037696549     50.781788374871120     50.154279690441733
H      52.286586119536217     49.494423574426619     48.886588825714767
H      51.834325728372562     51.029534326593996     50.870486619970542
H      52.333080009688040     50.244790233455696     48.599673180555385
H      51.366172719925714     49.013333301056875     49.509310101511801
H      51.163023862015507     49.994100687186609     49.574192092922885
H      50.576624714388821     50.384449591325648     49.411708229665756
H      49.712382644595252     49.631014388980212     50.915459914751573
H      50.488120310667966     48.470762182676992     50.835578904827855
H      49.805692372506492     48.317637273756944     50.354372036337303
H      52.425120547600137     50.881280806605020     48.245242514496084
H      51.915296237702783     49.219096649211458     48.283241801932220
H      51.895133294361273     49.537774982457208     47.862510157658903
H      51.926129558930143     50.076650886849052     48.344160448144059
H      49.470642038719134     50.326587178645120     51.179503357703680
H      49.035623967159303     50.819162024744806     51.412921803680348
H      49.232137894427353     48.288708578676619     50.739095085820686
H      52.600395497338191     50.318019336989977     49.684824264193367
H      50.343353540114947     50.416073371082362     49.977101873911302
