38
lj38_benchmark
H      50.000000000000000     50.000000000000000     50.000000000000000
H      50.044497300379611     49.697770331564847     50.423104572233733
H      49.866999475376758     50.001525031861576     50.832123084382069
H      49.883465421391911     49.460495603396076     49.769171245794553
H      50.415501721148416     50.407583982809946     51.207058726218506
H      50.276938458673250     49.674293768700693     49.253144542442044
H      49.447105667612945     50.390798124294399     50.227539680102765
H      50.517165195187303     49.369140139313878     49.898950477098680
H      50.399508940970179     50.806771487319359     50.751477464974826
H      49.841884232768656     50.684232637850386     49.624227310396542
H      49.948246238572906     50.601080555286572     51.448230661508568
H      51.037890378355968     49.004035789132260     49.999384238474825
H      49.618704004395852     49.628273343656417     51.458489432031918
H      50.488884729539890     49.281064868032423     50.631917406883986
H      48.988795215076593     50.437855267219753     50.850219294258871
H      48.929335887700297     50.230736755745838     49.741632409301047
H      49.100660883136882     50.087263872447792     51.513953665215027
H      50.525427764101828     51.117034721814683     50.152418101564272
H      51.099271046958940     49.559254359052815     50.599106117465126
H      49.888454476939437     49.818373598486382     48.811021662966475
H      50.229068532171986     49.059609367686960     48.986396664311584
H      49.747532260614221     51.005989977076801     50.780815189821382
H      50.621230394097736     50.361405431908175     50.109397601552701
H      50.635834988937198     48.793357159502584     50.696476653314306
H      50.301423635775450     49.095889369292649     48.200650268431595
H      50.536638848826328     50.310413227822018     51.712242050689859
H      48.904971472417962     49.950981076705446     52.001297950264018
H      48.980938661053422     49.456180629083264     51.794161053182876
H      49.495052054604891     49.454115634310789     50.651037939775513
H      49.551057751440375     49.068966415950229     50.141911330347952
H      50.977527966974982     48.314241813050252     51.033390006989997
H      50.843339896853337     49.837368624944901     51.888107517892379
H      51.359779147265129     50.105101535204284     50.667644056076313
H      52.037469785304005     50.120150240634601     50.476424060204828
H      50.125136738665695     50.387123931406109     48.716066557569093
H      51.134922037578406     48.617290225741449     50.468506062931176
H      50.585404177142230     47.763159168232143     51.326319288176670
H      49.020203239078711     50.568386337297227     49.171516360429074
