38
lj38_benchmark
H      50.000000000000000     50.000000000000000     50.000000000000000
H      49.776271970330399     50.188314098665927     49.305811410515965
H      50.451535408540778     50.083026650732897     50.430151444566981
H      49.906602356028721     49.329286331599313     50.398190138984802
H      50.106849694381459     48.649288731631998     50.107260616121764
H      50.325904299568556     49.320656283805995     50.810481128170771
H      50.338394881020086     50.695539916290109     49.848191869600683
H      50.401502155156045     49.590462613174765     49.853595193924150
H      49.734075500298154     48.129944393041676     50.560029247448853
H      50.826818945438689     49.677705225894471     50.367097223863325
H      49.638637509474151     49.691382566748103     49.326891353728904
H      49.742449414105508     48.670533709244879     50.990628910053225
H      50.151883626559446     48.259742127417226     49.405815688111950
H      49.848515055103356     50.611206939291826     49.645304642855599
H      49.433979855802896     48.020902193521373     51.067370438128201
H      49.317296568407514     48.251884477227051     50.251758466318996
H      49.005339854588108     47.538217019981595     50.820174225328692
H      50.188890571966510     48.875720990124222     50.571213016714182
H      50.411531829467727     51.335783895123235     50.196678725417350
H      49.172426089915227     50.630589975664172     49.338431027789298
H      49.734675051614495     49.059886987401981     49.385208275009937
H      49.508341218382647     50.638953228415147     48.801786299525276
H      49.203976036114526     50.660169409847661     49.956865918259417
H      50.610792546386428     48.468500598374447     49.838478149909285
H      48.753771606124012     51.107847443987225     50.396599230500314
H      51.354063256356888     48.405404606337314     49.594281145223825
H      49.560610795350392     51.300970020721095     48.638610292209606
H      49.420388381658860     48.636159700091056     49.608494318740782
H      50.455778677287732     47.897501202570425     48.772267804986164
H      48.744991179016189     50.065211061993061     49.899329292337697
H      48.618526069321696     47.951205159154618     50.611530474350531
H      48.395176162254756     47.555214764214540     51.053337618127493
H      50.909098579184054     51.618025460717085     49.879854918211876
H      47.662072007691513     47.254361539452617     51.075006394832997
H      50.532419734431627     51.188958628446940     49.641750972310319
H      51.145756138419529     51.684609235042487     49.234463847871083
H      49.529976357347252     50.939572382257154     48.156881721522375
H      48.098709871392110     50.963789837580485     49.995973993918128
