38
lj38_benchmark
H      50.000000000000000     50.000000000000000     50.000000000000000
H      49.639634564675895     49.469236432421617     49.692850227057214
H      49.763430133071488     49.632590764720696     50.581965122286036
H      50.167344395310174     49.304156026702749     51.167844151934226
H      50.576534828364686     50.046052486218386     49.781248767742952
H      49.320584539302779     49.403251508788586     49.229377394355652
H      49.850885456406978     49.578279092887115     48.850576068448056
H      49.614622813865523     50.327495998528775     50.330659883372299
H      50.710195279751730     48.893928917340347     51.305386451438807
H      50.053399700205482     49.017004046257746     48.837195311131445
H      50.985808281225566     49.599319313600049     50.305512244781767
H      50.015195607557153     50.243037149653688     48.543204875939431
H      50.331142168124074     48.762513660940712     49.283240928856259
H      50.342847103199148     49.688428412316419     48.571912152493375
H      49.151616110588158     50.545719482621607     49.715438748020631
H      51.565460131587180     49.301357784719514     50.151842348026058
H      51.532346600892168     48.819519931660238     49.527231880891811
H      50.280574902465517     49.757141634346205     51.426654982903969
H      48.532155666406183     50.140661453323332     49.555585508470031
H      50.403398210357842     49.265723054320794     50.156018932753888
H      50.088328017957934     48.563074590152873     48.498287892834817
H      51.008989351034124     49.604113905478798     51.280600891902253
H      50.117428725877424     50.150197014032209     52.106610913187424
H      48.048361378648636     49.851424628731785     48.979732169342952
H      51.812716232396518     49.914735006386238     50.517859745508993
H      51.515742213524959     50.285982786565413     50.221416597396072
H      49.581065611050910     48.551533142153964     49.380505880661183
H      50.166998197824810     49.615586518440864     52.548138090487228
H      49.730925023420880     49.842662256907531     52.187919166232994
H      49.534895218254931     49.370157726683821     52.055199364141714
H      49.628789491960177     48.012144977970749     49.379418818272789
H      48.978519761709407     49.306338307183857     52.173755881368741
H      50.287209792913103     49.358572458498870     49.646701435353329
H      48.981360029783445     49.021124052657541     48.941808044479451
H      49.615549071942475     50.152622134033066     52.913265794624827
H      51.410566899937457     49.966828412935676     51.825837843219077
H      51.318467029269783     50.682855047636380     52.030560222398954
H      51.848108271642850     49.944859404679221     49.959766061751637
