38
lj38_benchmark
H      50.000000000000000     50.000000000000000     50.000000000000000
H      49.571626384031134     49.490043365060792     49.683001699436176
H      50.419218395853925     50.148157635315947     50.377841563341519
H      49.583558818442910     48.921812145997301     49.783141769998160
H      50.078753384082368     50.079924778611385     50.868045835503352
H      50.711066310043954     50.219156057887339     51.094984447988594
H      49.378680976413285     49.559767177043483     49.090996156888338
H      50.028524587808469     49.221184633477307     49.205774494194102
H      49.407323341775829     50.506054047924600     50.934785799926267
H      49.398700932458610     50.399235141519007     49.845469073935249
H      48.960834768865460     49.015507240949908     50.204469757616145
H      49.178902576290319     49.968461818174710     49.713366134546725
H      49.350394441002429     48.578093390631388     50.481424580769307
H      49.708774843218507     48.413248708978479     49.309483817196934
H      48.509491247196060     48.969632115822854     50.837763201877699
H      48.704728476201176     49.552464292782531     51.208477068629399
H      49.278021727458096     50.628527822341283     51.481005452436584
H      49.943165024383838     50.358335863056794     51.829446108616601
H      49.916190045899505     48.645259026128961     50.917086685194278
H      50.276064884806729     50.716894049971195     51.621773504480629
H      50.928224264412613     50.131736139892759     50.111155894576072
H      49.268235536074009     50.364927039864874     52.214207369805479
H      48.714960727793326     50.712607076275361     50.724798096215331
H      50.174635018234603     49.270365255788562     49.998626320816946
H      50.389965816356693     48.896763893733876     51.112433528946511
H      48.003162661545332     48.597599492914426     51.305823968058476
H      50.626904409183339     50.825548035465907     50.953542323015853
H      50.059440647370010     51.241213848192380     51.078774403140237
H      49.089263309675843     49.193384582744187     49.269217043041841
H      48.756972814556718     49.291316124170287     48.629034234726198
H      48.494997634395254     48.735517322266631     49.254523523958483
H      49.135042666839709     49.399524498248006     48.095256981306754
H      50.500935703207517     50.253351108028070     51.942912032445577
H      49.639061515360872     49.798535510562246     52.053649314202495
H      49.602710530497987     49.883514015864890     51.520024919727078
H      49.644688368258862     47.800583127264758     49.196600633598003
H      51.216426963835225     49.429125833760352     50.141258326551288
H      50.253382457029616     50.570797348546975     52.602965449315121
