38
lj38_benchmark
H      50.000000000000000     50.000000000000000     50.000000000000000
H      49.904063082694634     49.826990438153111     50.569103057437040
H      49.960460487564205     50.440927816215506     50.520659027792178
H      50.628493546946146     49.886629286875966     49.999666402608696
H      50.531745715914489     50.593336270863432     50.508917087046946
H      49.889920427710699     50.607238020411181     51.035539309652400
H      49.740617096883298     50.496000724042133     49.538833604679510
H      50.190491008372376     49.298360545661104     50.333378419721605
H      49.252878281943381     50.553860264704156     49.027362862940123
H      50.388881839446448     50.711094103330687     49.726469282633687
H      49.583377420312125     51.145790175668630     49.845455975427384
H      50.075825600556477     50.823041684603147     51.563648019457311
H      51.252550956562970     50.708764204108441     50.695475238415007
H      50.402707167804849     49.116292751305060     50.961759626750677
H      50.462879459057149     50.254470685104877     49.508848979621071
H      49.660164633525952     49.065721894563872     51.082653448930380
H      50.316492784861282     48.658045757075662     50.373215090022619
H      49.322826919587826     50.361674204815856     51.259975916937250
H      50.337361095485790     51.461143182224191     49.676513197149575
H      51.254521422886938     50.214447900929159     49.856468903788709
H      50.542260027946227     48.732690738235746     51.267781941171442
H      49.393169627988989     50.245847321364295     50.296464029366959
H      49.725926541195932     49.195042687890428     49.888550452631733
H      51.301649642319418     51.151607830672305     50.914592040918471
H      50.813951858709245     49.740310040693288     49.030376347286150
H      49.954684756105742     48.626840097752783     51.205395695974872
H      49.347355574685416     49.157518124883282     51.538203171807837
H      50.786559196743895     51.219537140350361     51.039256286597769
H      51.587472965380591     51.668208026149344     51.075108409806589
H      48.808816933447368     50.356260943917761     48.825010297464857
H      51.481951087850199     49.435197837327806     48.933293926700202
H      49.879798629114582     51.164272721740588     50.598608978512551
H      48.391083804324737     49.864949557989284     48.993475460407957
H      51.849271168063972     49.952885966853877     49.861172930445605
H      49.842279638417928     50.806021525582196     49.083696748271549
H      51.611858361730789     51.883823819348095     51.808033442740403
H      49.735793755132619     50.083717935318958     51.555999341326626
H      51.818381192927298     50.424390831518330     50.934635307816635
