38
lj38_benchmark
H      50.000000000000000     50.000000000000000     50.000000000000000
H      49.839479000752917     49.778344039691433     50.509639014030853
H      49.499137721505491     50.078936150144671     50.783991619168184
H      49.775391993813678     50.520971489320303     51.232134478175702
H      49.850018312512013     50.479081237266605     49.765694421820889
H      49.667820139098083     51.043256175139256     51.566237814363987
H      50.486137804951753     50.411980674553490     51.577341494267742
H      50.124736780242728     49.937288764645473     49.472781818750995
H      50.477843327768376     49.837187241733403     48.931978566136173
H      49.256236484549476     50.784304024007220     51.991024253744690
H      50.314302395322095     49.677223143268655     51.087031878567267
H      50.439913972683193     50.175475525997477     50.270374628879502
H      51.128928075537999     49.821891773125813     50.364413599540605
H      51.484150544090625     50.506701608252882     50.554569283221952
H      50.480527129559988     50.871831081580488     51.905418036481329
H      49.159854856004650     49.722665348533702     51.325901706461146
H      49.215097925369044     49.583917982692036     51.902691043166016
H      49.692220390510293     50.576372842651807     51.805541817295868
H      50.161235658731059     51.112531742411562     51.269597338556771
H      50.229146344266617     51.079116279744923     49.435575027910119
H      49.726760790478885     49.060964056463391     50.208264631875139
H      48.755849350658920     49.977056785443921     52.272165806100460
H      51.849271439361452     50.403342820970458     49.927291020937695
H      50.012026375988441     51.025050860144987     48.983222830475384
H      50.195001797528562     51.233725878762456     48.447256012392039
H      49.102460136105115     50.288162074266992     51.519051178180931
H      52.228186915578064     50.300315225460011     49.399594301496116
H      50.993169941855435     50.337588664678719     49.241419742178479
H      50.601059474084217     50.973364404417502     48.830031721963600
H      51.336162598962694     49.950851703446631     50.959994039022817
H      48.754185110496195     51.369160076032344     52.145556259985000
H      50.659232459756254     49.029365130154595     51.085398344611079
H      52.133174457785380     50.509691317534340     50.570622278019222
H      50.769033679823558     49.789325500818762     48.481406235181623
H      50.916169693728826     49.064780441417071     51.652544480137045
H      49.497533386313762     50.629290678479485     50.816950606034410
H      51.872557617684791     49.390971956898440     51.043966172607270
H      49.966557578051408     51.631658955733741     47.973047819456447
