38
lj38_benchmark
H      50.000000000000000     50.000000000000000     50.000000000000000
H      50.466756165284174     50.040807912346189     50.517660150567536
H      49.503809110918660     49.904282828538577     49.649612773675535
H      49.812209921053935     50.130345088579880     50.809658977130205
H      49.033430805048070     49.993056849065681     50.032344602639540
H      50.877748257963894     49.586261622657382     50.388855088403403
H      49.631300974068658     50.741410948013041     51.055753854164863
H      50.364774496386197     49.133565220032317     50.363368102888408
H      49.951015442851997     50.657089158116143     49.953644589738076
H      50.136304026719344     51.090188479199604     50.195619121945647
H      50.950956445538573     49.113691452693359     50.683094577163224
H      49.631119034224575     49.184704637497489     49.399266245784794
H      50.795070293733673     48.452847617847397     50.405015024003468
H      49.283859437155748     49.436866677561859     49.732941945170474
H      49.782864238820544     49.307506076565417     50.518029149663235
H      50.240967797424631     49.058305359518201     48.935548202432138
H      50.518914733428097     49.784955013219289     49.080556761850836
H      48.901175311575713     50.541729631904566     50.043683612408103
H      50.321011086782221     49.499871185555229     49.463640488623696
H      51.177633289913707     48.292874914116780     49.880849351413339
H      50.550392872335621     48.504813570040398     50.942105547766808
H      49.274832185608908     49.428160200374101     50.251951861071888
H      49.740007815864274     51.377608994029650     50.855200242205868
H      50.070105180383770     48.549622114483796     51.554119788932042
H      49.953193870705583     48.821516811813737     52.250331555427451
H      48.949495823817884     48.914106800844316     50.151582268243658
H      50.055264119217235     50.293399482965000     51.532075623514849
H      48.770908202592345     50.338856163999495     49.466384306912040
H      51.177897629759414     49.360722548655637     51.098150880735787
H      50.240086450444664     48.155658995513569     50.593808004486569
H      50.081864749100127     48.295796194363803     52.341578464653296
H      48.434200544449325     48.742877339816765     50.737173522959928
H      49.818929705634162     51.438566237233914     51.615574618891287
H      49.635631528430949     47.970914941460009     52.129324949918008
H      51.096917166456798     49.213692851428952     51.786425455925212
H      49.317961132482509     49.370903441824908     51.043657314731774
H      49.347908580832275     51.281648060586257     51.446391691583749
H      49.480497045070194     48.932329646889791     52.076565184413724
