38
lj38_benchmark
H      50.000000000000000     50.000000000000000     50.000000000000000
H      50.219791842772665     50.708459800026617     50.112005466294953
H      50.390040647030560     49.662589625635398     49.833262401452330
H      50.036800145119130     50.564467519039589     49.444028656158459
H      50.470061157292491     51.234367044476627     49.496071443817186
H      50.185893454968728     51.682440445384714     49.649979611181976
H      50.252040015742402     49.549055377639633     49.272672763530544
H      50.869552700904336     49.331325942272379     49.197464891705764
H      49.878662923644811     51.392755305487462     49.924106375741111
H      50.301919462767025     48.972998505846355     49.237028729711838
H      49.959835099847091     50.689845821604791     48.782746452095779
H      49.136971459572450     51.384597645666808     50.186832871752699
H      49.619642396963620     49.264186369976173     49.441834244245939
H      49.834128514577230     48.771416568735113     48.783478773408021
H      50.966516558700476     50.743934062946458     49.394947804900347
H      48.641104019994827     51.100231173797091     50.656674940660068
H      49.350855980624736     50.770867771349003     50.221228335050768
H      49.303339580164199     49.942755703217003     49.454350648262796
H      50.801767421894169     50.809303390310411     50.421417178394407
H      50.537686388525579     50.537894305600034     49.559969461917220
H      50.858378316365133     51.339718415621000     50.018024639099089
H      49.972810909858637     49.457768292629240     50.104070100682186
H      50.104714293173956     48.428388118464319     48.444020078964819
H      51.577583863291906     50.725276720781316     50.407815643787103
H      50.431070784641307     50.892316537715551     48.303375858223113
H      50.753734775501059     48.319796347013906     48.854777078403529
H      51.095352939088507     50.141580338545495     50.709690214633547
H      50.280644915263295     49.204144120899038     48.605054801811775
H      49.157151245072960     49.891390112894477     48.899118957931151
H      51.055872992894827     51.363307233516828     48.390596302744562
H      50.995099667302227     50.009954861351105     49.168600452236163
H      49.609646256122232     49.164875144671569     50.720833495340614
H      51.259346202701259     49.998724800872644     48.413944374968111
H      49.251936257208129     49.121094756787869     48.379052674564548
H      50.507470601340046     49.743542181461230     48.424788653815185
H      51.032561466550426     49.158201088162357     48.489574707908446
H      49.763470127464998     51.255605324436146     48.573068488899018
H      48.950769153143554     50.010256158850133     49.937749375811833
