38
lj38_benchmark
H      50.000000000000000     50.000000000000000     50.000000000000000
H      50.505864433339283     49.788281084158541     49.500301352028785
H      51.101409936150006     49.295566785148296     49.316564394148365
H      51.541746836043814     48.987199698552210     49.254585770956410
H      50.416002246972944     49.902197820119156     48.933207030265059
H      51.614286850639878     49.490090364468699     49.079325437690521
H      51.780814171553338     49.308763747613732     49.604683634718540
H      49.758287862028588     50.515878181967501     50.362447526890854
H      49.480773025659339     50.790986913018237     49.885769577982849
H      51.992370204257867     48.431982365187331     48.951120040368302
H      50.576129106857714     50.086432450993243     49.930158000953647
H      51.222485210809062     49.054504696481999     49.870469220383207
H      51.981373868987298     50.035375559507543     49.131866387080144
H      50.712040347053708     48.893549295352400     50.107748727123706
H      50.971088413417981     50.380836641698892     49.210402820558492
H      51.075771386599236     48.717233514615678     49.283517457754350
H      50.048134420569660     51.070610321969433     50.526129585607890
H      49.744929123223521     50.548686384016079     51.063690395348075
H      50.658362607363706     48.042924130757626     49.282167388600392
H      50.812247673495932     51.066332643801012     50.581658915623599
H      49.582676341300058     51.317828546776454     50.639866231484220
H      50.077984083084992     48.841487691289771     50.370956223347314
H      48.988205694346753     50.606288780433701     49.638200885225807
H      49.964624512926257     49.364152818080001     49.846244013324359
H      50.463520411223463     51.424402889523968     51.010449735477685
H      50.167113282951163     48.529287439670952     49.162286534553040
H      49.226704513441092     51.347819318875409     49.473089711425928
H      50.255398962677845     51.692807035505432     51.563178327235619
H      49.095131644947351     51.655484494695990     50.851583422507900
H      52.548766338803631     50.032381627351185     49.590462053632997
H      49.457488592196370     51.369807005404866     51.318974253191485
H      49.857296352152801     48.122772462277837     50.141357143609739
H      49.795213317574436     49.422638312981789     50.475800005960913
H      49.406556988809683     50.788482959219920     48.986923343064539
H      52.208385289653705     49.007680897903214     48.559258625381148
H      52.666045428524960     49.516751841052098     49.652363895320967
H      50.113280884287931     51.866519518140997     50.674580128885381
H      50.335576198190140     50.212038817015241     50.755367139888286
