38
lj38_benchmark
H      50.000000000000000     50.000000000000000     50.000000000000000
H      50.396105195750302     49.513401632839475     49.590451362254100
H      49.443525231219418     50.106940038704643     50.317630557995585
H      49.051262455749921     49.985218948505747     50.810704943928627
H      48.996826943962013     49.257856081002586     50.823522701046379
H      49.116077949776916     49.515793978584398     50.229915141509785
H      49.754283464142880     49.452333076408699     50.035358954918834
H      50.478356361404209     49.952565198810639     49.069020478251971
H      50.321227609104959     49.986085348303639     48.543741891561609
H      48.623316276333632     49.531470558027308     49.919670855740279
H      48.397171092856617     49.297034278582743     50.829431848021017
H      48.051092917212507     48.761322307053113     50.619849690134586
H      47.796333568300398     48.407758416028074     49.970438610580345
H      50.325108466919943     49.378501074563957     48.566985830818147
H      47.188531725177654     48.527042902137715     49.501270394702459
H      47.040656886622152     47.758196314959875     49.423438114803339
H      50.559571124765974     50.519731325416217     49.922721565838984
H      48.333179269862022     50.058908243804481     49.646458249396659
H      47.888357285256326     49.845447762837857     49.457028689068672
H      51.108922834212805     50.250190535664572     49.400851813143262
H      48.728628841453592     48.902400941328011     50.448279250754311
H      47.705552766775632     48.328945048690393     50.915755921720823
H      47.302276598435142     49.022651515608842     49.230567616128511
H      50.189679188494601     49.960411830183190     47.892524387784981
H      49.788851022774445     50.279587996360419     47.669942235482026
H      48.877553586330173     50.519724986383800     51.185533294259372
H      49.818355047758004     49.762369875494542     48.290291745317269
H      49.171583548617043     48.306165157240976     50.181078040560486
H      46.814694442797787     48.251443153939981     50.146033745946703
H      49.301270446830955     50.436117418465081     47.993137747519299
H      47.682791654269089     47.482370841462362     49.664345411573208
H      46.749593789113391     48.831029532572572     49.041990103261774
H      48.299123163390114     49.079767710805697     51.321941970167138
H      49.570036921873758     50.638738828110853     50.595050760942819
H      48.498447157493665     48.503752644819961     49.950786945333505
H      50.914169810869808     49.663076591113587     49.280816888605258
H      49.514795215164334     49.651242182473723     51.123961211848140
H      48.323798955679472     50.139327000852610     50.144119061354047
