38
lj38_benchmark
H      50.000000000000000     50.000000000000000     50.000000000000000
H      49.874564113442382     49.956625419221375     50.499821932597648
H      49.847008573726100     50.706394146329281     50.266711708314112
H      49.667336811870783     49.328477352954884     50.649253707419561
H      49.361280745236165     49.363622368917433     51.133199043768883
H      49.109906657394447     49.262850488324467     51.731788149531603
H      49.527346201429559     48.900963510926566     52.187341093478693
H      49.202530547581830     48.294943020301687     51.913054437036379
H      49.158987958174954     49.927521693348012     50.817818276143427
H      48.751970680883076     49.141194593902583     52.288209776164152
H      48.753021548543536     48.954079442732095     51.073169205067465
H      50.373983434397125     49.186458665242199     50.983491843514706
H      50.176767373870796     49.303432256110668     50.140464030661320
H      50.721059012999753     49.482501989631203     50.638747469167036
H      49.960223327147233     49.245871155667629     52.218511438708724
H      50.546764374673288     50.145023808308686     49.643633759453913
H      50.077147912837596     50.509188432553145     49.412647300564323
H      49.202817953304532     49.333818956017446     52.556813712742425
H      50.201793266510975     49.802948712687019     51.140860682384528
H      49.699274944197704     50.326688778885689     48.792095295152755
H      51.023009486343298     49.640108468837916     49.982655695818430
H      49.453061716798295     50.335000483414376     50.755598798739229
H      51.445839260081428     49.174840247696253     50.406008682501088
H      50.401868657204062     49.433863645935538     52.656059863583202
H      49.545450834245784     50.846350626174079     48.817660341821416
H      49.340013309903753     49.933061638784977     51.925217427582176
H      49.206412917145464     48.861639415436500     52.768573627116012
H      49.541437170594747     49.422095335534188     51.942578452397719
H      51.302871583246606     48.498021817277944     50.161595461051405
H      48.594657377457963     48.491622042332637     50.805130691977823
H      49.668700877563815     51.076741416814286     50.652364502453437
H      49.916546383506443     51.517744222252723     48.583649266603814
H      48.921695710698394     50.432716782068809     52.263126993631545
H      48.050411874401888     48.783737716990430     52.366431673279116
H      51.622123530022130     49.093172850706615     49.914423898933897
H      48.349217281863176     48.199599092386848     51.992932995530126
H      47.927016120319067     49.242293610099338     52.697240955525686
H      50.273126885558163     49.903849572119377     52.786712508275841
