38
lj38_benchmark
H      50.000000000000000     50.000000000000000     50.000000000000000
H      50.298755224569248     50.293822903067358     49.330425084825421
H      49.795748250601527     49.663212620815003     49.514548022074749
H      49.167722891512874     49.651161063435140     49.204250952578988
H      49.203166485572126     49.906138582909989     49.645579906250788
H      48.879721218808385     49.822849852008190     48.655099406340987
H      48.519002396997330     50.509848063510688     48.857464092335832
H      50.153730767401903     50.744857392685695     49.057876389792099
H      49.498331604441880     49.137640273349447     49.968736228330329
H      48.577945632880763     51.058649340267635     48.745621141168442
H      49.970715721039902     50.219314420316095     50.459927510618215
H      49.732764732358802     50.315492245146245     49.716538277628324
H      48.648761877617936     51.268532700293960     49.504963778485312
H      48.886977533314841     51.381259345908731     50.013027664208607
H      49.308176541144562     50.730679164079092     49.283497396887924
H      48.411361902424112     50.085031319965303     49.386654041873371
H      48.397232200249839     51.348995625156455     48.229840574064454
H      48.170484873537276     51.743332922911350     47.978140407414074
H      49.883013074950682     50.779087099524027     50.210436860913617
H      47.939666344023394     51.859202733697870     47.371009791341528
H      49.658605359229625     50.354213462333149     49.004265604836270
H      49.779247559522794     51.368966018174014     50.216413188204172
H      49.549630515167500     50.576959208579666     48.520088869851556
H      48.375222681428127     50.703268534772690     49.908291681872136
H      48.205296355829582     51.012209293194331     47.613544025693976
H      50.228438448195909     50.659703977480731     48.232283992942598
H      49.260861548374400     50.480504286409882     49.910403213055368
H      47.564504016068184     51.503020701815004     47.665710604421299
H      48.527160327043894     50.877483567357714     50.605875975124398
H      49.437550454530658     49.869905954849550     50.272469232545511
H      50.280607744625861     50.559813835208054     47.611311502686021
H      48.253420535064414     51.783571536520228     49.376584745543951
H      50.724234095127457     51.015898426409187     47.540705658931692
H      50.327937125608081     51.194274310171615     50.494948113804945
H      49.583583602972766     51.520562274376374     50.947248371329621
H      46.926073107625477     51.943328309300924     47.809914071260131
H      51.071143713441302     51.174546479592365     47.903912005539055
H      51.445465992164507     51.732171642201251     47.462942629257093
