38
lj38_benchmark
H      50.000000000000000     50.000000000000000     50.000000000000000
H      50.433831583710905     50.161546100730313     49.612698991852263
H      50.017079276601436     50.506645922731451     49.188410264501641
H      49.975570827476041     49.515843479967586     50.215933898636379
H      51.156323263392203     50.016739137697222     49.776775815182546
H      49.502316839619162     49.420726248859495     49.991854205304122
H      51.668659532998085     49.544563144356452     49.544995710471362
H      50.117481694284663     49.571497707801377     50.865017495381871
H      49.893224354999141     49.706115991299768     49.494031740242541
H      50.326938849302493     50.223470623712082     48.621804276099425
H      52.185120717638739     49.651997220725960     49.242349973976708
H      51.214584164307489     50.713249904661005     49.570648602036002
H      49.947220949133666     49.745629733930620     48.776144436922536
H      49.720796470437925     49.300397821097114     48.765483747276718
H      50.622774431899209     49.736986598728805     49.371673533783728
H      50.391412230975092     49.565514300371959     51.617022278333927
H      50.482301003949523     50.803240112208698     48.897056821146869
H      51.186967638016384     50.742658773725644     48.919340046899393
H      52.010085508223568     50.790900584526838     49.620529643484787
H      52.546199840260911     50.064594168013144     49.440794040021295
H      52.857786116351214     50.197222934635214     49.048204321222428
H      50.193593000078160     51.156585757293456     48.320714660104429
H      52.864739521688143     49.426321824906076     49.107151209710125
H      50.658265742724879     49.035114454107223     51.826873522896129
H      49.916033919067623     49.129591386502646     49.827183402026321
H      50.815125242567142     49.820163168581573     52.085743362050529
H      49.646661778160926     49.436288791939042     48.007986219160962
H      49.988954514413571     50.758506764524789     47.819576575702953
H      49.510308596268366     49.273417672616702     49.504615724768740
H      48.817256693372201     49.566459005517473     49.554592835319603
H      51.059227379198944     49.900602331568749     49.135233233746924
H      52.352605856112298     50.412053607260489     49.857761758357263
H      48.720810842209460     49.838384680265349     49.011556564808899
H      53.399842067985858     50.080467032847984     48.749419317254386
H      50.485629621213405     49.939279422215229     48.015084132924208
H      50.512906292907445     48.922200708969477     50.984468074317050
H      50.517417582838199     50.350393899274096     50.275012980876930
H      51.470607105033821     50.195828107852833     50.340786454478973
