38
lj38_benchmark
H      50.000000000000000     50.000000000000000     50.000000000000000
H      50.173770988891974     50.428466127474650     50.319932815345368
H      49.889785468057333     50.765870138207063     50.811072924359941
H      50.169251318188650     49.363435630241511     49.918486670511264
H      50.690957808885088     49.863566488579735     50.008163926443530
H      51.053985181688887     49.545092917288159     49.889728953556137
H      49.668698706561550     50.596971148555447     50.171269542743794
H      50.768344855230531     49.538220892604066     50.653265595867651
H      49.663462216306861     48.915876255415306     49.893162028677430
H      50.287857852532461     48.445424240170837     49.914095714871912
H      49.785708346928764     48.888864530578914     50.403814477270544
H      49.675578594402879     48.347011801746625     50.873444826684143
H      50.714290878297810     50.459387877029243     50.782329680325176
H      49.924730004903317     48.384924306627930     51.572209851109385
H      50.980089929862828     51.001091105902852     51.315992786768156
H      50.960902915315216     50.262728598409979     49.713182260180020
H      49.937404623641655     49.440772720552843     49.343444821124358
H      49.199472140898997     49.204494570989503     50.172820479465457
H      49.546043220322929     49.723386901502806     49.128910136013737
H      49.127980943281486     50.161949537788416     49.019011904936185
H      50.583345986390654     48.013194784760358     49.938582557835474
H      50.141855544842485     50.211069601799373     51.015664401590627
H      49.632493990433353     51.171739349158123     49.885395961479148
H      51.539419005094580     51.075356579107392     51.004366381279446
H      48.807945357210727     49.443122842270135     49.207823512209309
H      49.137705363846329     48.102843668117259     51.138420604204349
H      49.869166467490579     48.064146453832315     50.453614394961271
H      50.266763005295921     50.944242293250184     49.926027937636029
H      49.780278487056322     50.168941641173049     49.414871742105213
H      50.341139005141372     50.463554951979170     51.446318111241382
H      51.093245076594570     49.410535290459073     51.175130629104594
H      50.253881504461745     50.377228258196254     49.417284822334395
H      50.289356323882956     49.678338304473598     49.012170777484627
H      52.116815047783071     50.746559975320942     50.726912707017455
H      49.115978534836195     49.648287846430478     50.576062983990106
H      50.595212139143626     51.320798358450929     51.524552341579131
H      51.588968440968600     49.188478695407731     51.332550426806513
H      49.315188261755210     51.563941489421914     49.285093894608231
