38
lj38_benchmark
H      50.000000000000000     50.000000000000000     50.000000000000000
H      49.858878774178912     49.429215816516020     49.965880376682286
H      49.855378442603502     49.288852403701767     49.191968661767206
H      49.345448083805763     49.084683257083014     50.303923144824807
H      49.157525392331870     49.478837706795666     48.972470201608537
H      49.744451910066452     48.490506130543999     50.080327251577977
H      49.617194136005502     50.422040546683341     50.563128362567916
H      50.160744299478580     50.320941827247665     50.682111357972360
H      49.879335465981903     48.060441031351175     49.570269042479687
H      49.269568476793168     48.260281466897581     49.272759122004423
H      49.685508371903197     49.782569175949071     48.771993885936070
H      50.494513726745708     48.883065909378423     48.981214061557488
H      49.359687415223725     48.236141962409711     50.467110640230999
H      50.154319531013215     48.028004741302311     49.090401759870225
H      49.793049247802536     50.575332363485970     48.776380124847023
H      50.689886552483578     50.152857118958956     50.077704515164463
H      48.960219963387921     48.051191796446901     50.992924716727899
H      50.639745937499278     49.424369921305029     50.091021472294187
H      50.839073245982036     48.756208788967733     50.079557622494484
H      51.096183939779834     49.971699844152226     49.598742029187477
H      50.328683170338941     47.582342277348495     49.899624038784403
H      49.320971853945444     49.994601749281358     50.577924182880054
H      50.906526503743059     49.265947180397774     50.485299454507889
H      49.868535010727449     47.589283057827060     48.732904464638530
H      50.562359279365559     47.588163594163056     49.225887350768559
H      50.497450192650412     46.809955671669620     49.886075975713602
H      48.986160873167059     47.511026269910168     51.487480602334038
H      49.026193654085823     49.805740791997756     49.485233397396975
H      50.272173880595673     48.474189518702438     49.932967884304944
H      49.020654243406149     48.052563354927585     48.669705167779142
H      51.455581835538759     48.773792614774905     50.127265357032670
H      51.745768849174688     50.127825788839495     49.906055400425743
H      49.673103721526388     47.843259204194410     51.190444155262689
H      48.955069701795203     47.583596671942004     50.632301681014603
H      49.134081327885880     50.062990269935511     51.121588514611950
H      48.511713800588232     47.807007691801523     52.062524817197520
H      48.679707096905723     48.143313336350168     49.517308430288232
H      48.103462071753292     47.940667287560750     49.844393113367133
