38
lj38_benchmark
H      50.000000000000000     50.000000000000000     50.000000000000000
H      49.897254746113703     49.749587743326700     50.732689743718716
H      50.125969357508495     50.286110476293331     50.672734542243703
H      50.568384846221036     49.506983106699238     49.834673027145747
H      51.263484426257726     49.404164910322685     49.576433837966121
H      50.149066132240264     50.792553575165826     50.262147005831238
H      51.417101911106336     49.937621356515770     49.855908729929681
H      50.945831689329125     48.707651995509678     49.340546565246498
H      51.790852068063757     49.299265856166208     49.778034835098076
H      49.796888750480505     49.136856741050963     50.250662981090976
H      51.830490415870052     50.308093324310192     49.856149002672204
H      50.756991549843221     48.492565224010711     48.749758012093324
H      50.561062077498292     50.467903587602635     50.205874241883144
H      52.389461455869402     49.974165384718596     49.795236111570382
H      52.377602154553898     50.869915373222206     49.751842068342583
H      50.660395247361748     47.822506706979382     48.829452571002150
H      50.388728918918531     48.742931240518395     49.094762701088811
H      51.604659949221492     48.694734145397476     49.704043237506895
H      51.589929441655393     50.717813008814481     49.281224847031119
H      51.286184204264686     48.220933377340323     48.391086753091116
H      50.304661349203293     47.441403544247166     49.202354927084166
H      51.925427975994928     48.956886557865118     49.099611675788033
H      50.702035803146892     48.132052904675440     47.950311024626103
H      50.735201640565705     51.164049585317258     50.602262321686190
H      50.489910688979784     51.691923931905691     50.759533047686290
H      51.903707886135479     49.840456526292584     49.489170503516277
H      52.387405461136531     50.304446492130815     49.102540073664919
H      50.750028613140515     48.426393767070138     49.914294622917716
H      50.144998578080738     48.504742965412895     48.161751346576580
H      51.443025376240804     50.476336605450847     48.781043217454567
H      49.335641544099346     49.741163468515907     50.261084733751460
H      50.400197960065086     46.882419633628089     49.251747937070427
H      49.781616714653225     49.292918529762275     49.521989528334785
H      50.499117391776025     51.592540426652192     51.377294438871864
H      51.231648723786449     48.226258086520829     50.442046641970521
H      49.258404346435867     49.000581246274763     50.299645592902195
H      50.117449767124768     46.249329430050686     49.219706174550808
H      49.766032633417225     48.648100226240970     50.777149329552131
