38
lj38_benchmark
H      50.000000000000000     50.000000000000000     50.000000000000000
H      49.507126192315020     50.050669605749377     49.712417132983880
H      49.869166985301860     49.869364139949433     49.240963949734962
H      50.339040728685220     49.580250827054428     49.040033018112481
H      50.780986089081338     50.161597130767412     48.881938586707165
H      51.028571145236270     49.985549240767256     49.352661440830417
H      51.341218657812462     49.928116583307073     48.365703472937135
H      50.397481263882177     50.258910214252836     48.346071674008250
H      49.952049926932126     50.565515272626961     48.824204177318194
H      50.878917371470486     49.830470373340376     47.807164313498227
H      50.722556980117986     49.763657948261169     49.778920735259867
H      51.494703091531001     49.856599213045861     47.700377289184125
H      49.231442059633970     50.778054058446727     48.783841206077554
H      49.023409766715552     50.382717739346049     49.144512454927472
H      49.671880136854313     49.308814968026041     49.454115450854701
H      49.352067890871368     48.949239084894046     48.949235229226694
H      50.194479662644376     49.456341779750375     50.425190652134049
H      51.499512405307598     50.624045875849227     48.450919597162034
H      52.015727771954516     49.511021819701512     47.945501682522043
H      51.981652887279694     50.835642239452859     48.040840342941792
H      50.786975754447383     50.735605793001326     48.783252572852291
H      51.563350652794554     49.735197233241500     49.792597696131523
H      48.968302052151266     49.784694427493726     48.748857919453336
H      51.496719173915693     49.334460637106197     48.012648409767969
H      50.549332537655225     48.795742265307751     50.133144515506729
H      52.243121245687881     48.944650804208820     47.551954883479816
H      49.794627937016230     48.883740194643771     50.584432634572472
H      50.281853710877222     49.541498895933579     47.712024203463699
H      51.543390185178112     48.861238316871621     47.551341016680368
H      49.443857312221901     49.505128428528657     48.182605657710063
H      51.785943138308895     49.860739640616728     50.545215240044278
H      49.409064505300819     49.266806603224076     47.660885753841413
H      50.286500195881750     48.650665347876568     49.420466577680983
H      49.901712624830935     50.596067046036772     50.213875055567115
H      52.079455114776280     48.652271936471585     48.191161724010229
H      52.405172227453839     50.471205349445796     48.085191088674897
H      50.814414005486952     51.249170695335721     49.257929539840745
H      51.075519874190320     48.706717139251857     50.212022007495619
