38
lj38_benchmark
H      50.000000000000000     50.000000000000000     50.000000000000000
H      49.456696047755052     50.195414137822908     50.117494907497893
H      50.296993927701436     50.050561398130775     50.585151497104448
H      49.026767651849021     49.819833541088244     50.038112501264841
H      49.656215041742144     50.339549550959447     49.477903010109522
H      50.517589410173592     49.539079396805519     50.477916587812238
H      50.987373850309119     49.245022231263910     50.800969189206796
H      50.237722541795861     50.695354102571876     50.904103469743731
H      49.910322842603669     50.488497106072124     51.262263924199921
H      49.470425612791061     51.069327705370547     49.250212871375574
H      48.756139473661911     50.550697086492335     50.141511407056448
H      50.614899532353185     51.333404567062694     51.103951949066072
H      51.115988130605999     48.850556048872193     51.340736543148452
H      50.902388219846024     50.150301371905698     50.236710710552941
H      48.995412266747039     51.280770748003739     48.895024619828362
H      51.503618298490899     50.172170236475850     50.086028976749994
H      49.088015502083870     50.547364764254368     49.103298430920660
H      50.595569426911275     49.765192958142293     49.652856793277081
H      49.149627767460856     51.221526024761147     49.617233967435688
H      50.952043758764304     49.377758622977524     49.496664911478888
H      50.426409558563513     49.193097101721499     49.462738625340378
H      48.734418116592501     51.586352773758449     48.456941093392594
H      51.387771215391979     50.414855737599034     49.578191978031612
H      48.372048074184832     50.511111550827749     50.495623858740913
H      50.835638782389026     51.842083861989693     51.191847086130416
H      47.654942822735542     50.239229738005470     50.316146400927209
H      50.642841668678471     50.946115682478464     51.664676715898231
H      48.213316401647525     51.691272829169201     48.438337140557323
H      48.827368239892955     49.442522003046889     49.689413740827760
H      51.418035034066115     49.536490811765439     49.115217081892631
H      51.518179047579004     49.045475677568867     48.972758153804200
H      48.272253625117251     51.096141137653710     48.528992292339765
H      51.247589976588685     49.790478563276601     49.732333975689563
H      49.956302736730542     49.981073424702302     51.343299847790135
H      49.718999388360032     49.098609704501513     49.814610436403669
H      48.186462313142002     49.381005349921026     49.697022855198263
H      47.420405099497856     49.814301152834155     50.464509412045132
H      48.368468990433044     49.387079981199363     50.313188925906523
