38
lj38_benchmark
H      50.000000000000000     50.000000000000000     50.000000000000000
H      49.561122115030059     50.022290151467651     49.699310073737642
H      50.674040226151959     50.199820166122606     49.762522160593214
H      49.081786605660533     49.771334716426260     49.222013927474592
H      49.206680535991325     49.923295616003955     48.611356770654773
H      49.945083927623237     49.898105084140660     50.568953563139587
H      50.766002469376012     50.099208711112887     49.250788878190207
H      50.484349550899438     50.309576037034539     48.864443098792613
H      49.849408105239007     49.292052409565507     49.741849286130403
H      49.515000908867115     49.331724542845230     50.437493613333523
H      49.819713323885310     49.896757425222518     48.468101489793852
H      51.503049620069461     50.153864440493336     49.015323135436660
H      49.811706425409518     49.787541647141673     47.831646342211599
H      50.643361834950554     50.289977952277269     48.390028679761635
H      49.690854802340681     48.935884797674007     49.146131445781513
H      49.864161109864035     49.931074708100766     51.254659950015707
H      50.749003018229899     50.742223729696846     49.863907789745959
H      50.426642622136455     51.000090884961544     49.031616492535044
H      51.855070154857458     50.271794735015014     48.396584049309887
H      51.748689415996644     50.098426982100548     47.778513314032480
H      50.525472864132212     48.878161054949423     49.799400468070388
H      49.961820016716921     50.723338913031270     50.039920254872335
H      50.281207581632458     49.876194806870664     49.419262145077212
H      49.088305500270749     49.628389301248895     47.709848249423118
H      51.133723172138822     48.424746605997115     49.861257781305760
H      51.093675729409988     50.085043957959449     47.316642164823548
H      50.293315280148398     51.258965988789939     50.026984524872859
H      48.901194815269051     49.500723658381233     47.263824020308384
H      48.464245782662509     50.011800069546425     48.597747648753931
H      50.925346385471094     50.653542495973127     47.973122081663270
H      50.265225562473638     48.384655162895882     49.796873300148441
H      49.499376866563587     49.290644297498602     48.229862860533800
H      50.063395571020322     50.557508435051659     50.881451042771495
H      50.750655636155571     49.647355805061878     48.385186231275426
H      49.851664330059563     48.744929955212150     50.224824477340682
H      49.912562296209174     50.297765074662976     47.400981058394187
H      50.057709978542292     50.543749954360720     47.993960787072716
H      52.554031912265316     49.950219153258757     48.289722390542103
