38
lj38_benchmark
H      50.000000000000000     50.000000000000000     50.000000000000000
H      49.342868699124864     50.335546541129204     50.094135497283567
H      50.065210648060756     49.252264175833332     49.868205050752785
H      50.150043677872240     49.681962347930444     50.517721840063878
H      49.320924074462802     50.134462781710468     49.635674863172021
H      50.501487183723256     49.990928306873087     49.458712639221730
H      50.335236277444402     49.501288573267161     49.200193248348867
H      50.001144937437829     49.228253119651121     51.003788529001874
H      49.440185090179675     49.532784798216433     51.177525275088236
H      49.310958453539818     50.123954827420391     51.437148156706115
H      50.017666635774823     50.431623667466233     49.637305711949331
H      49.223058919810690     50.709595633958024     51.976086421622597
H      49.919300892738605     48.781808760683354     49.345642573080966
H      48.902463738767963     49.504051027027266     51.676753176986260
H      49.395521850214102     49.148448011528600     49.993927431221600
H      49.546891393698495     48.484340952398078     48.744866137744218
H      49.248048749056721     49.863774359686268     50.693448750207466
H      49.302565869634854     47.778907838022214     48.649441389951996
H      49.750031120357974     48.664676634239882     50.637620249936781
H      49.127119743352644     49.366281347957127     49.546455296605593
H      49.547615843468066     49.131949793614716     50.490994081267608
H      50.105237821171713     50.373325875020051     50.418766093983557
H      48.315351008939373     49.249981794883887     51.279433770989925
H      50.039629041217644     48.173451075046486     48.271124866926051
H      48.709088510050059     47.847092032534469     48.198681897061256
H      48.764894254940018     49.624430057859271     52.253137584058095
H      47.975330002545746     49.395605291031380     50.915146430303743
H      48.871161676316312     48.824247523315847     49.902126509947045
H      49.534268494340303     47.300182626954253     48.290823282952161
H      48.783010033010058     48.788139104829661     51.468607777306204
H      48.693483788737687     48.219372141951162     49.883255662041314
H      48.114925018311467     49.011025364571019     50.381869092788321
H      48.361678362053297     48.441566897785307     50.362592820750173
H      50.011309307350636     48.537423214506994     47.646320038810686
H      50.421557662873262     49.080847458430881     47.411993121664501
H      50.244027675766269     49.675460421705580     51.175467853345673
H      49.896016954629360     47.731011752721002     48.578555766926542
H      50.298681415592696     47.283063644954275     48.537936812561590
