38
lj38_benchmark
H      50.000000000000000     50.000000000000000     50.000000000000000
H      50.219017154904009     49.280454250685587     50.071382679189995
H      49.719096631333571     48.977702241024090     50.175523025964559
H      50.458411234379348     49.763728126806960     49.406007229239357
H      50.725964129585122     49.132254799653914     50.284691483035367
H      51.311882583921523     49.273739293120528     49.825361884848768
H      51.028761219562185     49.853279979896833     49.088668860141858
H      49.554581166884518     50.424622211624687     49.809569870276761
H      50.069838282471039     49.464713308166459     50.511875854666705
H      49.596961727073172     49.787878367476694     49.437810360721585
H      49.224592901269645     49.547299808164318     49.005564775034074
H      49.151670547162126     49.584516930240881     50.071065580107287
H      49.322913045060879     49.987081835958577     50.501122040735346
H      51.511654594209723     49.855706249663264     49.679003152219614
H      48.743840641279391     49.142419261442413     48.559923733913706
H      48.569411357206057     49.618923075525522     49.682469648803604
H      50.540925241995623     50.457625286829135     49.194901525804639
H      50.472101383054778     50.626324629049847     49.949156047468215
H      50.997123486624105     51.074766652708576     49.689391791524287
H      50.255376165397323     50.720523012069656     48.705076080187922
H      49.207542061240339     50.979725061996675     49.737763710656246
H      48.711025251338341     48.469842761468776     48.846145125707864
H      48.409243538896021     49.352242129467101     47.900658145913049
H      49.063814306602936     51.006722300823476     50.345799448606911
H      52.214299890707224     49.952578488751634     49.779414014955563
H      48.706065958453721     47.832397889062932     48.543617267300419
H      48.932672552862343     51.091176494802653     50.820033609731098
H      49.078759095819422     48.773907939798271     49.231860952320204
H      49.469215109015096     49.563041492115573     48.335609753093230
H      48.085982482425564     47.817193382071125     48.469063002169179
H      48.965907384952779     51.724771600993208     50.146604544847705
H      49.401287573913784     50.754681847530726     50.968742655197957
H      49.329016973699609     47.384941989697595     48.318145888057757
H      48.336222467674041     51.155735269999525     50.471794530306525
H      49.095525833503444     51.593673902522220     49.577215742239055
H      48.585697493559714     47.081150358007079     48.299556948447716
H      49.684122903411648     48.702121411120856     50.617207347522907
H      49.944449538669183     47.550678108482970     48.210868011489168
