38
lj38_benchmark
H      50.000000000000000     50.000000000000000     50.000000000000000
H      49.996871098526853     50.782009370556814     50.156134594482488
H      49.866981603626073     50.907821675052368     49.528112362498106
H      50.443080242668579     51.063720639017028     49.070794282672978
H      50.953860045311131     51.421427571619795     49.251846555833595
H      51.043921447510492     52.073642921646098     48.889410232570413
H      50.067583540453256     51.212615976896089     50.598592965148512
H      51.330979446649124     50.745078236570656     49.124793131150938
H      49.564600123851932     50.933576561860178     49.950454054855292
H      50.651016975197457     50.681982972863686     49.515541579636292
H      49.780049929920111     51.656504698231181     50.577095893645286
H      50.469092592683019     52.306810220763666     49.280437405966019
H      49.434426558769921     51.131886533994859     49.012494390751108
H      49.183880993348303     51.399206706772048     49.903252618770111
H      50.596100681335038     51.787732290164328     49.263079156408622
H      50.573278181165968     51.871768821898627     48.350559031999886
H      49.757135352720724     51.637711455160627     49.812983835522772
H      50.763389353914150     52.404066047688303     49.921895379150506
H      50.275999829291216     51.163647251965031     48.326721399985452
H      51.549721395695400     51.139798428653194     48.502514236195957
H      49.901954789753233     52.270784538886218     50.556341323469432
H      50.317593797511549     50.419998483380866     48.477907615730686
H      51.846617632418429     50.477761666687854     48.876081496873681
H      49.695629604401901     52.816454184030782     50.659638018770160
H      51.315534391170289     51.064139079011085     47.870233933596985
H      49.078023065266827     50.613219145667323     49.612129244836964
H      50.567099161392981     50.767107644862840     50.689658241034635
H      50.131899367202315     50.561022205715794     47.718209508582895
H      49.979975987527354     52.723089180490796     50.004254497327061
H      48.525408683436552     51.398865753507991     50.229717927547185
H      51.501036830081055     51.399456454918209     47.492737590590679
H      51.296998465898128     52.595103973445298     50.452676058323696
H      49.415954736750571     52.651932794572211     51.298493298302013
H      50.443616008343646     50.166036273692988     50.408715109731482
H      48.418385617761885     51.587786641548867     50.992184671775682
H      51.691753313184179     52.007289801333954     48.782847973699290
H      51.935813617113581     52.372719564579029     49.199368781075300
H      49.359095741912284     51.676502505418817     48.643172937322269
