38
lj38_benchmark
H      50.000000000000000     50.000000000000000     50.000000000000000
H      49.968809448065180     50.348674507538895     49.287358987203589
H      50.360210456563379     49.947700669832471     48.737470786584218
H      50.320630866289278     49.775492972047388     50.335251999207657
H      49.233571144673007     50.387967762573290     49.173229722861741
H      49.433242207478528     49.947347509344858     50.253217786011440
H      49.976471643364818     50.157688761660623     48.073445640267806
H      50.335716654268545     49.087463787716032     50.179101102698624
H      50.230691911214926     50.528577953570505     48.629934870541582
H      48.485320215956470     50.221131573291849     49.403604582440245
H      50.255600442969268     51.045834480566938     48.640347766670146
H      48.882202448698834     50.157872574060285     50.040342379123281
H      49.511795651186411     51.264265538078355     48.852119112413369
H      50.259530216295822     49.558839980483910     49.666201288710283
H      50.999643372689228     50.095092530151312     50.486512699449008
H      48.198854071743213     50.752037121599670     49.436121185068089
H      48.693109916330116     50.620750309302771     50.322836905132107
H      47.852471410006849     50.093723305914587     49.436622123793200
H      48.922793080598154     49.469080968691749     50.204773685503916
H      48.320292721681248     50.075788575961532     48.706464302673510
H      50.012867353150561     48.729524451822506     50.312505754555517
H      49.664818035819287     50.683918252475991     47.881254712459125
H      50.834080804087229     50.944849408996625     48.265099722937009
H      49.573654596473560     50.389280546283480     48.792210511387914
H      48.565323239953976     50.017076020239685     48.192574757151718
H      49.179896235627538     51.534480180524923     49.426288873837848
H      47.365079152405912     49.841732944425722     48.956927855172211
H      50.790338175106747     51.694294439543938     48.321074334354527
H      48.778283862359231     49.659385437102642     48.822898966453188
H      50.027159839755626     51.770987799951328     48.264008713163321
H      49.591639582781497     50.111428521413828     47.589437442429357
H      49.949504259646964     50.818952953725827     49.607572608507319
H      51.176016067376281     49.925994668993312     50.038145853348936
H      50.375289502335065     50.535128373573393     50.403066202239422
H      49.369046431661708     49.633551704385567     48.799934659797387
H      50.265050115371736     51.018013439799027     49.958401968539967
H      49.039316363584959     49.537570600222537     47.479251391802833
H      49.743842749870090     50.361031207660417     50.854678786584003
