38
lj38_benchmark
H      50.000000000000000     50.000000000000000     50.000000000000000
H      49.598623645547164     49.352157873689343     50.087335668269752
H      50.491776001823908     49.968859701459841     50.600480466016414
H      49.835776982596137     49.995441747573565     50.625371618395768
H      50.524529931729759     50.297399202418077     49.590435095297167
H      50.001431214744180     49.585080278749004     49.386052959179928
H      49.651976667176605     49.803471035663691     51.215623902081298
H      50.157956469132714     49.133263250375187     50.552757839556349
H      50.296660693537270     48.758609017974749     50.232240019250426
H      50.286688490630112     48.188182265393166     50.573086984949704
H      49.937551419997874     48.335914152004513     50.151133477732294
H      50.632395874079428     49.303953397774038     51.016876411877220
H      50.969419569657781     50.548988761300109     49.602614055063867
H      50.093754201129464     49.775775977035593     51.762485315625291
H      50.664243465320610     49.601946557492191     49.018952925935615
H      50.104193401391434     48.807978694866975     49.661084424475341
H      49.338149062357573     48.446603259457184     50.282316996957285
H      51.199471824309057     49.903235502164215     49.903516655198956
H      50.643573894736797     48.194371957632853     49.783570514760967
H      50.684511595614808     47.507661256296743     49.476517545876625
H      50.488869059104644     49.257579903012314     49.524625205806331
H      48.887053887293447     49.413043115945925     49.730595687859179
H      49.189640418352958     48.922266351281792     49.175875579677047
H      50.324882604800578     50.188342458882779     49.117594337966594
H      49.441782779769383     49.669203123979820     51.986688969149171
H      51.173061646391652     48.513700758368969     49.342413982014563
H      49.778135742998813     48.866516444227152     51.112996789527685
H      51.519088073335872     48.202747186218033     49.626821607166221
H      50.803532810259675     50.961977866165313     49.980072157726070
H      49.115376727012311     50.232182290508476     51.555123953927001
H      48.822908167709315     49.892533884417261     50.943256336417498
H      51.618038397130896     47.654707039794623     49.438932380905193
H      50.383066568593641     47.395133689659808     48.793670681631703
H      51.610749642390097     48.784350543712158     50.120000783314353
H      49.404657416153462     50.016250904319989     50.310794568613908
H      51.820595829852493     48.240732920795089     48.937313534040385
H      52.365683476275201     48.465064894297868     49.155019816216182
H      49.138424391024493     49.001965632409259     50.510305449708063
