38
lj38_benchmark
H      50.000000000000000     50.000000000000000     50.000000000000000
H      50.046919082441455     49.880939140216924     49.511031356517179
H      50.551075345756168     49.805334518092486     49.152071215648746
H      50.283268545943052     50.539809040587002     49.492823816706199
H      50.555501023136500     51.041412706643165     49.707342794988399
H      50.735445061378527     49.319557033345802     49.705722602412493
H      50.184599268505352     49.234189371827036     49.023310134182054
H      50.891117578401570     50.881383434011610     50.422048582783113
H      50.564451068901519     51.442668289099707     50.571617489845536
H      50.030922322188822     49.096690205748764     49.961673838487755
H      50.370119305711633     49.548522762784891     48.564646891861699
H      51.127431096326795     51.675490720448053     50.973917044618815
H      50.815391973500901     49.446971742626239     48.066590380275436
H      50.352168196395887     48.479940139661011     49.006716758465274
H      50.250544530803936     51.697368961011826     49.880167199428513
H      50.904242360788032     51.191433785496422     51.554626090289567
H      51.196814648081954     50.080325595943044     47.881035852162846
H      49.691735874508211     49.891948792843124     48.667850302099609
H      50.479303313360695     51.357031673488841     51.989731486803080
H      49.357266043346549     48.989469623537374     49.881066742234609
H      49.874751871576414     51.617872847092343     52.236639705204254
H      50.371241964973350     49.791768934285088     47.786701885703309
H      51.801292483486144     49.731905943568535     47.724303882470345
H      48.915049667495900     48.826848466600509     50.158646661775883
H      50.029534934484310     48.570070961752343     49.734704751236350
H      50.869295304604016     48.550780995297217     48.442585481949870
H      49.670044892345182     51.471716547486267     49.970430178682001
H      51.537790817798893     49.123921076948164     47.930331000420558
H      50.020240958352161     51.609478265602249     52.788927299320193
H      50.576349906776159     49.696064961461111     50.290145667321660
H      49.311668718282817     48.365012141090560     50.358102113592537
H      50.633838360152986     52.091229113623456     49.959309322010746
H      50.855382440781092     49.111392121431479     48.645922627712018
H      51.625345772802049     51.763160741564292     51.075197334946289
H      49.859073843999809     49.295796234093878     50.666457837269562
H      52.547238185851754     49.486365125546321     47.879152437328912
H      49.551500624042447     49.034244446900303     49.034888115645835
H      50.997162340860321     52.533290910971054     49.862797053309407
