38
lj38_benchmark
H      50.000000000000000     50.000000000000000     50.000000000000000
H      49.747944904035698     49.468918526438436     49.463544720208681
H      49.228879608518220     48.905100618441317     49.561334217785962
H      49.780381314901859     50.330050642709125     50.668151574152517
H      49.376684964951124     49.582831777714212     50.223294502784796
H      49.007288032993287     50.485854947204388     50.669440581458375
H      50.703484079032584     50.172975905537363     49.751624236792644
H      51.176491369357336     49.918967089102715     50.277905943833446
H      48.831268276311540     50.029191023499038     50.811754669121505
H      50.847875444981327     50.641377740982087     49.115825125739910
H      49.452894634030081     50.978539282826226     50.585215628525511
H      49.206496385688041     49.129511467476377     50.806485791529227
H      49.004488305652004     50.268533426247679     49.974511974968543
H      50.203030671071609     50.477637838531493     51.221987674359589
H      50.271710577840693     50.502291200640371     49.893679009572843
H      50.008756618216189     48.730434802830757     49.397329518814026
H      49.880421104628638     49.271699231076298     50.267096539969003
H      50.852370773277393     50.172605128580784     51.349883827557377
H      51.104353561061082     50.465093987872216     49.917119959268412
H      49.329853412079522     49.760683380064897     49.671702325980732
H      48.825314952547004     49.964934831959617     51.336593112652281
H      50.657602641643109     50.569971616435858     51.861594641393893
H      49.723925197719439     49.644945489850379     51.021729747407782
H      50.548198306240764     48.640942246757739     49.272481632410944
H      48.834441753083262     50.377663442156894     51.814658546943647
H      49.594929038182016     50.680431412468558     51.612499141027385
H      50.576648748371802     49.559793569245912     50.332622154880319
H      49.732358992830768     50.085206929762826     49.509843786296365
H      51.100866347543828     49.060892498475283     50.506036311808778
H      50.679366188987473     50.178590147425091     48.761802674844724
H      49.461772361277099     50.821127248056314     52.349115452520756
H      50.704230902528735     49.870409847576958     49.290642967930033
H      50.863668067570508     49.050219969491366     49.760397861886915
H      48.271223840250897     50.515620122652990     51.929172853913563
H      49.039846194339134     50.843790526660783     50.062562854426865
H      50.041315727861146     51.024696590355177     50.238641970176161
H      50.938282004617186     49.673544130878909     50.913621298675587
H      50.157850153615655     50.981423361290695     51.498730487190883
