38
lj38_benchmark
H      50.000000000000000     50.000000000000000     50.000000000000000
H      50.147207410585104     49.880670023866969     49.221292708165244
H      50.543258211773825     49.869953288496667     49.936643610232515
H      49.591596166342889     50.259876892542827     49.271619626186521
H      50.013425994781009     49.289813097504215     48.760788914121918
H      51.134625578018827     49.651213516105692     49.844227970136117
H      50.322764866629029     49.046560407070679     49.192366840676740
H      50.878656380826996     49.871049694924565     49.164937198193257
H      50.591658064099967     48.490820275233467     49.278387947200542
H      49.997144421999785     50.161438626942612     48.652367359314731
H      49.963901391538954     49.346629874372042     50.155760405498029
H      50.774797708102923     50.639275298504238     49.951747216926563
H      51.177476207047611     49.207438796654770     50.175239034632447
H      49.452730675468523     48.943978007108477     50.395812804032104
H      50.597971586611031     48.122307582209174     49.881864117389597
H      51.655612205688058     49.676430979983380     49.101661692013430
H      49.456002891193613     49.130849955137222     49.915895877054048
H      50.729216008201064     47.680880800711947     49.556406719249509
H      49.618575054354750     50.761696365721640     49.747578255581118
H      50.366153866560722     50.484010050458529     50.620022729872254
H      50.818667526572547     49.056532258012190     49.453358290945530
H      49.849838467341200     48.460221428717979     49.337003014798171
H      50.376495671671051     47.401358878573951     48.951823735268228
H      49.507451256453514     48.450879111820903     50.132733207461861
H      51.900331836518795     49.102629170828067     49.880382785763949
H      49.256046168250869     49.942292585055540     50.285662942950772
H      49.468918320038455     48.985651413363591     49.196672730224087
H      49.776113364377437     49.505879151046784     48.056831859589771
H      50.956727901766428     49.650796386554937     48.437836559756242
H      49.288749775013684     49.413544861868488     47.599914922755360
H      49.371415588021073     50.039579357163234     47.309860528757767
H      49.173271908811238     50.254546430253818     47.980546958064267
H      51.794280458560223     50.016900050667701     49.736439552946734
H      49.317016411561582     49.174160199731595     48.393165699799887
H      49.480441571247738     50.672373628333588     47.708228896859950
H      50.235666237364178     50.590977631353326     48.323875424702237
H      49.237038251016244     51.248047608369802     47.495142417401006
H      50.613012012467998     46.934467369269107     48.961562137109240
