38
lj38_benchmark
H      50.000000000000000     50.000000000000000     50.000000000000000
H      49.517145863158824     49.899060442897088     50.103918872767636
H      49.309451549212504     50.186709954282748     49.676195203128970
H      48.998254581534177     50.212643716579279     50.340125871450169
H      49.399054202571726     50.418043769543395     51.002400601143101
H      49.552823285983550     50.746965673602048     49.433214991009223
H      50.327747976147151     49.424085625879314     49.877401461142050
H      48.964455630120646     50.814323611750893     51.165771952806054
H      49.348858089810200     51.450349537953791     49.724554789512354
H      49.245322768500458     51.352511269469574     50.408900992439087
H      49.969119275220592     51.140608680871438     49.438085863938966
H      50.282507280034785     49.204887400550874     49.227098112269154
H      49.345905175317775     49.364466257690637     50.203633478816144
H      50.791808193858373     48.867445232198918     49.636679670266197
H      48.778448455841421     48.976502300184862     50.539615671574730
H      48.831375914415290     49.022060807302353     51.156649606462921
H      48.609835534923249     51.340505975630329     50.659845889162696
H      49.834257923888970     49.003813625250871     50.335702643936479
H      49.612730337502370     50.992149574211290     48.886792526521070
H      49.985230795452864     48.442401631640202     50.348009801896183
H      48.555822798673418     48.604468373625316     51.277743697854497
H      48.219618069588066     50.916016994021994     50.569277898986641
H      48.311982860881251     49.572437889688047     50.657288126626604
H      49.218153912025663     50.319896826016056     51.571361457592005
H      49.963299225353758     50.569227215588732     51.172325258495015
H      47.767097904188788     48.649134980083403     51.340545162146014
H      50.594704672945824     50.294967284270328     50.263988605363075
H      49.935317850502443     49.911227438422351     51.618264385345690
H      47.760603355169636     49.226353625946224     51.183455727531445
H      50.403821039684182     51.005306576727968     50.522087224967585
H      48.917727283285508     51.697021155747890     51.201493898561139
H      48.485869593980780     51.990098306252001     50.478242518116815
H      49.903306871841188     49.908070761084069     50.609042582339050
H      49.608975976242000     50.503029189452540     50.127574945921673
H      47.098629946550034     49.097811795331857     50.771242001743175
H      49.231295546212749     51.496607774006726     49.037493675404662
H      48.392417910318997     50.715341396634486     51.653161439299396
H      49.639287908939366     51.763451540569271     50.901332840139531
