38
lj38_benchmark
H      50.000000000000000     50.000000000000000     50.000000000000000
H      50.048867670771521     50.268514136807063     49.345669701863365
H      50.005461325307181     50.357843799759472     50.368916132404053
H      49.703186834292524     50.460132537313889     49.668228928049160
H      50.179184783536662     49.648885276318509     48.913161784852008
H      49.460826710241726     49.622743353070263     48.766941824865121
H      49.675746122022844     49.362699405041568     49.707649519172470
H      49.041127022219868     50.103800601030350     49.142852669785597
H      49.464748199854817     50.294520349745198     50.450150594043293
H      49.958923294795198     50.831540092256660     49.048742729392316
H      49.238046552538819     50.561198892035293     50.915605176430986
H      48.840196146206907     49.774393181916913     48.314562326091206
H      49.238936588763274     49.392714716931550     48.336404435273273
H      49.330495284937072     50.072910023174622     47.805714082957287
H      49.248101904639356     51.043606479945197     51.338138197059443
H      49.872081138479658     50.131984860967194     48.244824118688570
H      49.818889908142644     50.314414560256161     50.912930971088670
H      48.872523520375616     50.697155888446872     49.442155248336149
H      49.024768462098912     51.600595920101746     51.455201329270679
H      49.775296522082925     49.898964608613042     47.245088119192850
H      48.682103049693886     49.804828766882025     49.590988244939091
H      49.298236201073749     52.348426189726659     51.553898234509901
H      50.041814655954319     50.804904978985689     51.378851826296199
H      49.603520665761060     51.352486763658874     48.924852936227659
H      48.356582234886048     50.091110491780313     48.507993269033783
H      50.174525109364026     50.267253849795381     47.519847682665514
H      50.803156194544329     50.584319270424068     47.523585702097023
H      49.899924437396834     52.098771182228965     51.300515574073266
H      50.445166299894268     50.672127715601938     48.645816983272475
H      48.183601398211664     49.802198464101529     49.955004120360556
H      50.204311921112918     50.813270895806042     50.107378606912455
H      50.531173920028920     50.643027077726920     51.930743408792267
H      48.426756905524940     50.459768096417093     49.202401523397768
H      50.534350671244923     51.171889354881678     49.121516422407588
H      49.522031055516486     48.995052182832666     48.661708246571749
H      48.124706171048331     50.981463793963307     48.903403600762964
H      49.257322953010402     51.158412583844395     49.282924237380769
H      49.802751062867046     52.742436447070190     50.996281542253804
