38
lj38_benchmark
H      50.000000000000000     50.000000000000000     50.000000000000000
H      49.833696170143604     49.639141803600786     49.354678469195363
H      49.811554475969587     49.613240029504581     50.268396427368685
H      49.596728719304778     49.180176901277498     50.892099347928735
H      49.585836444796357     50.055839369246051     48.818012492503627
H      49.632360946484120     49.115808665567258     49.934455291405627
H      49.885519858276126     50.144455350828977     49.242886432694029
H      49.501256232143604     49.774503443883752     48.412076109976880
H      49.493800957132777     49.241066394944362     48.972859039420086
H      50.180599470826586     49.541248700051590     48.255153453381013
H      49.296427190578747     49.537614266323054     49.576142396210962
H      50.686611644717900     49.912921101853115     50.122261527822751
H      48.882333290345969     49.012938903613509     49.165173494362428
H      48.997168481502207     49.257907685608210     50.890540048042929
H      50.993261680118074     50.145435526291188     50.473353576901907
H      50.439664181531477     50.251149908741738     50.436370746489793
H      49.915563157874679     49.026239646733522     50.383039545813226
H      50.192920273202020     50.260273466793549     48.053802819676505
H      48.462927476914437     49.223301576470334     49.399678562655424
H      50.166614786353890     48.482337538811741     50.817889715682604
H      50.622479565377049     50.674460704541566     50.032055459474051
H      50.468534184601253     49.091747856958413     50.216865481961129
H      49.986235295635183     49.233853288628886     49.043894997711085
H      48.535271184685307     49.632173083480055     49.770492916880563
H      49.558607337252525     50.342494437740577     49.572205507350219
H      50.397589519933838     50.671971138409859     49.435268753517576
H      49.562725357069567     50.352655528856019     47.796854136351755
H      50.334142578465624     48.537119292487638     50.084429271567529
H      49.361878085181118     49.457156365815543     51.601039556897724
H      50.855201707723239     48.369545748217760     50.990180634858142
H      49.085745089026872     50.238207451398132     47.656335563068161
H      50.623939471248761     48.195330767131026     51.718208316947916
H      49.821090209164538     48.325873617703216     51.453933627588590
H      48.635864551005973     48.445945224346374     48.701431720896977
H      50.453103949586378     48.691072997238649     49.326702493064900
H      49.990789016493423     48.883302029862762     51.360600866744583
H      50.262013374592627     48.532092383609239     51.600748754694806
H      50.433956237214268     47.604266770096594     52.193639304478772
