38
lj38_benchmark
H      50.000000000000000     50.000000000000000     50.000000000000000
H      50.041974705968180     50.286182565993862     50.689706591292655
H      50.524551798657953     50.797076208296446     50.693436045196947
H      50.209299436620505     49.709435103982152     50.582030285229827
H      50.981379644111371     51.151725477599186     50.132340500387414
H      50.242372598077552     51.090586182103920     50.997043727423858
H      49.782337363488260     49.761412522189516     50.981988590935003
H      50.288591383156515     50.683959244948049     49.724403659830095
H      50.155431913557791     51.169634642425521     49.149318293449205
H      49.938500232802845     51.189740279918425     50.032245510944740
H      49.667293157956088     50.575586136474953     51.199555424158170
H      49.444837011689437     50.220064878420963     50.071949289736565
H      50.244806156990471     49.974750210025775     51.381419869385311
H      49.135124562043025     49.808367616020654     49.543203694680045
H      50.292257917671414     49.437889310335933     49.899073739766337
H      50.071625312382743     49.919525186872924     51.935515124332269
H      49.472286600102734     49.315171955902471     49.628712804570313
H      49.370607730516944     49.990264341475964     52.191297771674300
H      50.658545775629023     50.278584380770070     50.766102049504944
H      51.670126331082578     50.833999045243694     50.379870278224416
H      49.842770323215973     51.337775202970427     48.476221196290552
H      50.643471186289119     49.571414061770938     52.164479382789828
H      51.179734524950462     49.732439883902977     51.697464855325606
H      51.362028799700234     50.867355540794399     51.055443943017160
H      49.283203105096618     49.401546895617763     48.940813119846204
H      50.820631120220902     50.217238829976949     50.169192826556070
H      51.340076707368070     50.972732968562838     51.567062088972399
H      50.922309359291297     49.067701583224625     51.425182614743832
H      49.703362245339413     51.984740738544708     48.822597645884343
H      49.485426254509029     51.802343735104941     48.226898927583278
H      52.066550038197967     50.500984946058495     50.294382080987837
H      49.887198905407175     49.431909530889158     52.096197591066726
H      49.763979054959840     49.560241474874232     52.722281787648427
H      49.176213343098475     50.454621523784475     52.694082462625211
H      50.706402853034930     50.401535425322443     49.212052537645526
H      49.337260215833965     50.355059990351997     53.205560037075450
H      49.237765666723163     50.990122750486144     53.560192418650750
H      49.720692846553071     49.680178108887368     48.392267054800300
