38
lj38_benchmark
H      50.000000000000000     50.000000000000000     50.000000000000000
H      49.944238281184994     49.610663471254689     49.345772041687155
H      50.357366036298409     49.947049107973235     50.360314412207316
H      50.535446748577321     50.263117721943800     50.745265120663049
H      50.903706960490823     50.605375605388019     51.236390306654087
H      49.339072285188493     49.700387914883883     49.900327874734941
H      49.889080827066756     49.177558645224451     48.806415897319113
H      49.766261129476753     49.109092865813679     50.014032515346031
H      50.948026965544514     49.940326777521229     51.367523256953781
H      49.561110871789204     49.365714369419855     50.490236369600780
H      49.532550879836911     48.685065907755565     49.465322425591673
H      50.423724042446921     49.186690491989076     50.026766731810739
H      50.542551478665828     48.906057777704284     50.619093643502353
H      49.856972900282649     47.979272059583430     49.269556840899632
H      50.309079037379469     47.507026677349572     48.829552223467658
H      50.648907677887912     49.063916071632185     48.893107457179958
H      51.399147364715482     50.288849798444971     50.756004011387454
H      51.178026203594897     49.182858921686410     49.915326803764778
H      50.767107641613642     48.635098341124667     48.290160009843326
H      49.959697013914386     49.129444030551461     48.129940362878756
H      50.953593819700835     49.244350556680978     50.686502551615334
H      51.626208945415982     50.987198757305350     50.957606756276093
H      50.440242415229619     48.007749314498454     48.833941237205927
H      51.196426522401730     48.473839202289177     50.272547369718055
H      49.368499510753090     47.777928170412110     49.351679455637033
H      50.222869264437747     47.439629308420194     48.131858527934867
H      51.500545525658296     48.424882354213374     50.860735645959011
H      50.589027379816009     49.188122345919815     48.253828468570873
H      50.306780756800350     47.089728315012202     48.495808791754989
H      48.774585916821692     49.577782925220788     49.714661312043347
H      51.199168323332323     48.419435385272642     51.605504040623643
H      51.763103396045146     49.765629765489543     50.984649237532743
H      49.871601884556654     48.798106835017499     47.643266792896725
H      50.535674991118796     50.782582256641945     51.847743388895807
H      49.255150693492418     48.826771477463453     47.638555616145240
H      49.556810098810573     48.619375468994178     48.290650514468261
H      52.183521869459568     48.730240415967714     50.683322739472466
H      50.587329917945553     51.396189637178885     51.781330128826689
