38
lj38_benchmark
H      50.000000000000000     50.000000000000000     50.000000000000000
H      50.407360162987580     50.123375609448821     50.682398411387268
H      49.687432943020127     49.864138109361143     50.646138417445087
H      49.386416560544284     49.240277253766131     50.776799611366400
H      50.762276175395385     49.706077298787704     50.962379273691639
H      49.080325336428714     49.768657907327977     51.097626830359062
H      50.082476946616310     49.551010606682560     49.400434746355380
H      49.966694193075661     50.659272359275214     50.952369210085472
H      50.202892109249952     50.034097166979187     51.358407732133607
H      49.780694206372267     49.207373771329777     51.100252669597644
H      48.801468366957664     49.290868847524855     50.700906553529819
H      48.776340181706580     49.858672753789669     50.356596925283213
H      50.159834913125323     48.950268907771516     48.977144592837838
H      48.755643361018173     49.160259332311654     51.301064224190213
H      49.981406926402620     49.151943809748367     50.291182197766425
H      50.398461783980494     49.001010053020451     51.242104143347554
H      49.409760608401697     48.890822222909193     50.010346882008662
H      50.255902509763501     49.384503176106499     50.760212417905230
H      49.107915532860403     48.700249182284225     51.649335968174192
H      49.853257136868422     50.465631459377391     50.389899633382441
H      50.284868644488213     49.452048408660417     48.387150228662229
H      48.253053087772997     49.025926607150538     51.060058160047483
H      50.420617101206084     48.564039131351080     51.679531917932842
H      48.293492115257131     49.417667945186963     51.733214546705035
H      48.538752305938992     49.930175692040983     51.023366124891062
H      51.065780115810441     49.471115649477518     48.310544081326711
H      51.336826562120905     49.897451925332511     51.327052312403765
H      50.834910360103898     49.348148412681155     49.599276593407993
H      49.227923482245373     49.900850126462188     49.799508811387454
H      49.395929644229980     50.397013548735551     49.587150756426034
H      51.704473341721176     50.326298762198924     50.876257215201797
H      51.013673229033458     49.161683623888756     48.774755036838464
H      48.104090025534163     49.965220515173712     50.604990506881727
H      49.487737730565911     48.100593584016941     51.397704593977672
H      51.098221815059262     49.101831363411726     51.183937765047141
H      49.563141040626043     48.948945188590670     51.540162266913313
H      48.310497091653069     48.731552549564363     52.104372467336773
H      48.049843029784846     49.698986314820935     51.038991468491375
