38
lj38_benchmark
H      50.000000000000000     50.000000000000000     50.000000000000000
H      50.674536725117058     49.831206876959385     49.736071330864327
H      50.349114023471422     49.710849212617852     49.244246043538567
H      51.106724193832548     50.183546513952543     49.443937727309411
H      50.541032514668416     49.148110119476648     48.867131247582300
H      51.043698839002950     50.635941691010245     49.918175609399142
H      50.759206163150196     49.705604966975102     48.464004515774263
H      50.130120533938253     50.127907869368897     49.532911015650015
H      51.206194113215822     51.116237416598921     49.780812757065412
H      51.496885311470663     51.183023430104875     49.363157867359618
H      51.989695880668464     51.195879743467415     49.015982659655812
H      51.217400282401123     49.456153806477289     49.312462288346474
H      50.953246546981561     49.766834436075669     47.969510178414225
H      51.822385337437687     49.944730469420591     49.189051687380889
H      51.545016168637154     50.672932416068299     49.302171005683611
H      50.322790835603193     49.572791787266937     48.024169051521469
H      49.547564876939113     50.376869029219421     50.262415413839456
H      52.056339191552176     49.429987339859210     49.626421693473205
H      51.720761485453238     51.016569312354378     50.287442902824594
H      49.751654676765519     49.586486979353133     48.202796433063050
H      50.454916303760463     50.475957569530898     49.242870051300947
H      50.133722319716838     49.130189167079592     47.469021736805132
H      50.779686458987321     49.231974780621094     49.997945047211211
H      52.238785957417328     48.814244945520677     50.040958484169188
H      52.501577558466145     48.185275324767119     49.686222431024895
H      51.228303494968728     49.783491155088555     48.913008230571826
H      49.715032212571337     49.507944700706027     48.765530649633121
H      51.519226747601216     49.946321525494405     49.629865287092599
H      50.431460726278317     50.557673108172665     50.356988991346604
H      50.233126931601340     50.062004368031872     47.465966586212545
H      52.314134505260853     48.570768162817117     50.804919252182231
H      50.212565587197929     48.893203555973031     48.272282925770789
H      51.728944595204467     51.656122592132760     48.903191959094421
H      52.048271605377394     50.433113577785427     49.081028364318712
H      51.237802208644204     49.558886034036007     48.423990676476976
H      52.440534458316108     51.025509641080141     48.472034280908169
H      49.689860653280284     48.605973012091795     47.896383635813166
H      50.758290635597042     48.431547903673255     49.127931520635002
