38
lj38_benchmark
H      50.000000000000000     50.000000000000000     50.000000000000000
H      49.350437147053533     50.014827149350950     50.390907783247108
H      49.446433767109845     49.504030181036462     50.181962271364206
H      49.634098890746344     50.615995959817404     50.262921454347769
H      49.375763113945879     48.904298958682389     50.609527819750639
H      50.575340106200215     49.996916964871879     49.560223028322625
H      49.159311254798986     49.148679557657601     49.822408763034289
H      49.456097172491482     48.966247564752670     51.363684345225948
H      49.608583641226147     48.550908397569316     51.061748032152856
H      48.689069686581796     50.243698802854183     50.337483865875235
H      49.942148760470843     49.456818054361634     50.071541572517766
H      49.790563432172718     50.407814801822227     50.821703219630685
H      48.790875830084218     49.652898025215116     49.333419027075209
H      48.749872235376429     49.749929481666818     50.378799852780539
H      48.654497230328452     50.105560688784472     48.957880757597252
H      48.149630887851295     50.746932255195823     50.523690847836171
H      50.188816345276898     50.579041817686104     50.156967398719331
H      48.153071454536082     50.285328617269236     49.977997522640280
H      48.422915578410020     50.847112932346633     49.679540125849236
H      48.633576867355934     51.366449972083707     49.881245989226628
H      49.555805475795935     49.718812630209868     49.622502662228648
H      49.218772166674938     49.071303735288637     49.134862946976689
H      50.759427168440794     50.299260454818537     49.111450632680196
H      49.080909305846980     49.350680558989929     51.791126027149424
H      49.145725810525605     48.717619418351859     48.593853542076374
H      49.291942776369289     49.178798835011797     52.471127936962752
H      50.823341009460208     50.932213862781914     50.390955823116755
H      49.638499731418364     51.106241021035913     50.341275669849360
H      50.014239317217722     49.513773450843246     49.480311125031506
H      50.258520039045393     50.300845983338931     48.855921957802259
H      49.974202778087580     49.352438558587735     48.793807895914838
H      50.004137082800810     48.754763898415376     49.861005966541370
H      48.808647899402054     50.356295348019266     49.599339496928195
H      49.250765476508803     51.691795347974043     49.681810928711677
H      49.581686859626735     49.118601386222451     53.110633038109825
H      48.972806432728575     49.229369122242296     53.448053230483254
H      48.439182105142010     49.799364769066926     51.045742068076706
H      48.718378070774520     49.583302406523373     52.650040138202691
