38
lj38_benchmark
H      50.000000000000000     50.000000000000000     50.000000000000000
H      50.207367430340561     49.404653369544683     50.083867743890892
H      50.033301191995925     49.786321611125508     50.479007745117720
H      50.698372585666355     50.093666339103095     49.839413406151834
H      50.701093299658353     49.793529771617038     49.105827589356387
H      49.900414297608627     49.186105119756235     49.376343118711802
H      50.345301972132312     49.180073333314624     48.784775963533868
H      49.933855037541370     49.111620426526528     48.204855660210193
H      49.568554557871316     48.982432908749601     50.027543288242498
H      49.553764877657834     49.619201178690489     49.040060878636396
H      51.246315463019080     49.950621568324905     48.921328127939205
H      51.107488876505641     49.367548399177508     49.274462008655306
H      49.694479234912066     48.699923542712419     49.077597383941828
H      50.947685596317342     50.433068811798641     49.462929949722216
H      50.204705090908689     49.617284977071506     51.243813380645392
H      49.669297866100216     49.602780389588126     49.589125632883906
H      50.545246412097541     50.913962897921436     49.531062196507882
H      49.475602278697743     50.099872622911285     49.633674957074753
H      51.665769086897029     49.732680311959946     49.657328842963224
H      51.508709258553843     50.938361488766112     49.541840298368371
H      49.112650479628329     48.651284403974017     49.475378838731956
H      49.315084068759255     49.517710837561189     50.564583094581614
H      50.094756251057390     48.417608399318233     50.215821022221959
H      50.570528701936041     49.370750577141237     47.898523905109364
H      50.137878689987609     50.703473381438378     50.215679188900054
H      49.219551668387574     48.770355316620048     48.653404474832151
H      50.812470770604030     49.980574619794986     48.171454943000661
H      50.329720279707402     48.189847938416378     50.613455680907208
H      49.686037204263080     48.123694022543113     48.971561661233736
H      49.954828463814110     48.647724727567393     47.649775761708135
H      49.557386371031370     48.528667673073457     49.776176458570113
H      50.530776787012350     48.072016365196930     49.907135906742745
H      50.595774137667675     49.395264650278413     47.156900092635539
H      51.678479906463870     50.848019856686030     50.293566081908217
H      51.823171992668136     50.259206091519417     48.463772201113699
H      51.586598275951836     49.507712590020752     48.722173553710235
H      50.627080378917562     50.006564601149087     47.203485100523061
H      50.077202528838363     51.383200641477956     50.342624801288949
