38
lj38_benchmark
H      50.000000000000000     50.000000000000000     50.000000000000000
H      50.135758435223970     49.797186770890754     49.236642897729354
H      49.801688771827720     50.358524257228815     49.164918883920429
H      50.659214528740556     50.093844311711052     49.675024026947220
H      49.800828055806910     49.633703625185220     48.738660804008838
H      50.591422916688771     49.410668267896376     49.644698895451391
H      51.246666316219851     49.932278605805401     49.990109621393103
H      50.447457535703208     50.576987300422438     49.155489748634125
H      49.506141864802977     50.111526733881163     49.649873952014111
H      49.971287115480770     50.620652068118801     50.178093873748743
H      50.377329086978200     50.594775134363751     48.505257133771217
H      51.351857987374068     49.196698215145787     49.852228129831488
H      50.145015293801364     50.164032015014065     50.476337682661281
H      51.845274626897144     48.753259891234045     50.208216219802793
H      50.812751192107484     48.882017623921300     49.818997003540908
H      50.423141857876999     48.185241118086729     49.734689670878211
H      51.915675794516304     48.104419406877426     50.195035058480592
H      52.303702309654341     49.267125155420594     49.949924810083630
H      50.090347827453186     51.116985523507182     48.879908301060752
H      49.552612437738517     49.058699547946993     49.067235080356440
H      49.907124876681898     51.665686221549350     49.396916619645353
H      50.106314901816582     48.948491407815027     50.198959590184224
H      50.097414077244451     48.615453392665209     49.060820411565139
H      49.538823900476856     50.229760942020349     50.911508713296108
H      50.518329002071063     50.914011869926341     47.868505765653133
H      50.695863082795555     49.464149167600901     50.328699442828054
H      51.927960838187317     47.839266028814045     50.713437453571004
H      51.373051981522735     49.873729249986724     49.363268345552171
H      51.893781570067546     50.267191518669037     49.412482310806922
H      51.408236586698905     47.814138329947589     50.581737884045779
H      51.679493323896843     49.738813516022283     48.754890581325483
H      52.163973685199863     48.482478176022354     50.785219645155493
H      51.022676030982673     51.124396957227880     48.390096795807672
H      51.156226613879312     50.535147861318983     49.988834154944129
H      49.765544769524638     48.894649885365212     50.569715961489059
H      49.215217983109248     48.595450569425189     48.628743433739047
H      51.670811270743933     50.295575897576889     48.803064679121107
H      52.586850279446125     48.112418463676683     50.071535502504602
