38
lj38_benchmark
H      50.000000000000000     50.000000000000000     50.000000000000000
H      49.284276668524789     49.753502554491057     50.014992576977363
H      49.248500868040573     50.133327194492850     50.383848148504612
H      50.285945961985590     50.301338985670490     50.298587034801727
H      49.316197583230817     49.347093609948985     49.396902128001251
H      50.786182526976887     50.411038985729498     50.726720411623496
H      50.752525042335016     50.944312847143237     51.225976494001216
H      50.474510104239450     50.798072928256815     51.906870129283099
H      50.029266158312218     50.165404489155335     50.846469716681419
H      50.191440681727144     50.962996518706646     50.931809002715291
H      48.708409730614001     49.158861158657139     49.790159539775281
H      50.127316254105516     49.662724792646131     50.567479966523834
H      49.149630085622881     50.553396416447086     50.058984383729914
H      50.390023064103431     51.275281366172450     52.027830282928832
H      50.707733126778074     49.249572706286827     50.312992895077031
H      49.853446244276689     51.333663907121050     50.602783169657570
H      50.054803152243792     49.264587477402650     49.407910276773677
H      50.372877315854005     51.431946221450211     50.006585570489605
H      50.149735296068215     50.042450851888916     49.436358031530595
H      48.772638137793635     49.677865299415423     50.161419029634217
H      51.092402058589030     51.312253555236943     50.192279427619738
H      49.752903051853728     49.074887634025998     50.235504687011243
H      50.991631727796580     49.515442466665064     49.672472853948676
H      50.170238167918626     49.098510336161723     48.769432213582448
H      50.751047210032716     50.071438678325293     50.253704383547472
H      51.017995173506357     48.589700094699367     50.105656260007486
H      50.612259262671806     50.588357601697211     49.859231971877072
H      51.046271283561033     50.899808655049370     51.730260505400963
H      51.599302894047817     51.473129660542128     49.625175199345136
H      50.592199121897231     51.719561950519207     52.243122203310286
H      51.563157098129203     50.482971195268789     50.907258940700693
H      51.151312759622613     50.215159235578099     49.864383648924957
H      50.460248365998751     50.458262876160589     48.881776896904803
H      51.444474167869679     51.223429300482969     50.959294519990728
H      51.046928905886588     50.655701377701959     50.200532953518781
H      50.760641445398186     52.338530089147696     52.355273043821576
H      50.659271785356331     49.821205828777053     50.753596678057875
H      51.636216808324086     51.799221219454360     49.122486776364532
