38
lj38_benchmark
H      50.000000000000000     50.000000000000000     50.000000000000000
H      49.940429618966874     49.638210145212341     49.558566015969532
H      49.519856949046428     49.453497840747509     49.997854332242262
H      49.487859262466579     49.143711022557639     49.138630776359314
H      50.422181543065719     49.850246203132770     49.153498032185539
H      49.731475328467376     50.046314696448967     49.262062164369254
H      50.048153563439797     49.148430366099390     48.911822756216054
H      50.240578190058841     49.232510722863339     49.541508519713744
H      50.922270089753681     49.147859377112454     49.341199032909529
H      50.054464991369130     49.639240563209086     50.457986831644973
H      49.549876689551922     49.079179965435543     50.692667186531914
H      49.822163328711014     48.848519825709957     49.690074676781578
H      49.271279068290418     48.788337116887227     51.020271094624434
H      49.223560256105344     48.460415790743973     48.824929168486634
H      49.839775342751985     49.114353464880367     51.461864835756153
H      50.610228581734013     49.547191999187291     48.737204860975496
H      49.253393615134442     49.544841378707446     48.964139800057282
H      49.502189938202598     48.138523684759242     49.687709102667952
H      49.989994060268579     50.624564332969832     49.018263502441791
H      50.236222596493292     47.965000399881625     49.546259673061591
H      50.025587005849452     47.489638900632585     49.614997583823509
H      49.342140078521787     48.359716155046975     51.572698314201354
H      49.880063111975431     50.028588158684244     51.012490102128567
H      50.699333101227509     50.438060287475309     48.988151670795546
H      51.170239882201699     50.762757732272490     49.459074805280920
H      50.467000423187336     49.295587409068190     50.174001940773429
H      51.316162891297346     49.189258634412631     48.729305803442244
H      49.786811598738367     50.702666361805264     50.951668051120649
H      51.832360661477772     51.054935900899160     49.532732116772628
H      50.502855586456540     49.064075082618274     51.232915222423344
H      49.932885005144712     48.059648642630918     50.082819583209563
H      51.278797395548288     49.641684526594304     49.169920473253470
H      49.441872349309946     49.339974805519525     48.427965079160060
H      50.964779583785138     47.831446149747009     49.814868291665675
H      48.716095468463877     49.038184571187678     50.967575403500483
H      49.655841661534829     49.067206079844617     48.022919250003483
H      49.068153695421536     50.822322223421388     50.911310144541481
H      52.036002406773754     51.479349772894210     50.151190351468898
