38
lj38_benchmark
H      50.000000000000000     50.000000000000000     50.000000000000000
H      49.640520045354492     50.369475775615314     50.229379208464593
H      49.834438360898950     50.712697838963336     50.924088436652660
H      49.675027473282263     50.143433550751070     50.843370326289303
H      49.236448096117414     50.714890264020895     50.828179623523070
H      50.204285389883246     51.162424160029914     51.001344366784039
H      49.896229552563526     49.586180266984115     49.433394438930272
H      50.066126875614074     50.692154141489077     51.406743632659385
H      48.644101837141235     50.571744844844730     50.794168451180553
H      50.197010758087785     49.672172430348169     51.092699893753107
H      49.391131215492159     49.249874764369828     49.512287561881479
H      50.740347001561489     49.953549454716985     49.745259823205203
H      49.278375245850249     51.420157421734146     50.589290760852869
H      51.240103051589941     50.205051665308709     49.441201518703345
H      50.503682707775305     50.014347909411292     51.515150873432532
H      50.588039741512020     51.706814867734394     50.572530121621838
H      50.867227103921401     50.376134272983933     49.039965187066770
H      49.847703799330255     49.178348637623444     51.058227305280461
H      50.387419066706329     49.348473974478530     49.802239495743123
H      49.225203594715083     49.687596781016104     49.852016680648049
H      48.921465483139926     50.203738945693587     51.041191792431867
H      49.235728774861755     50.197720324172217     51.750763706549925
H      50.673646730365945     50.472108975870391     49.782958567635440
H      50.459484440279098     51.809418948518257     51.127577147035723
H      49.918336789622053     48.425764745255748     51.237839205472959
H      48.145513831265561     50.713174835521585     50.834104612418329
H      51.523009988562457     50.886252405997794     49.378778421029935
H      49.098202009484567     49.831790858689338     52.371068060002145
H      52.045155129395702     51.210406790627800     48.930781138870593
H      50.516854022265584     49.125388297107570     51.446262783360417
H      48.493058841698257     49.773691180398878     52.585017001819629
H      48.107003181541671     50.229724940128214     51.095580237692680
H      50.915123716355829     50.432711855229712     48.413146970618051
H      49.846053467405980     49.997177537694760     51.741006712651291
H      51.137342792276911     51.311896337940802     49.720076949666371
H      49.847554360169838     48.879162888894335     49.589566696274339
H      48.404623581505469     49.201439617563700     53.063244296710245
H      49.270540127966221     50.099850571224593     53.021835504780618
