38
lj38_benchmark
H      50.000000000000000     50.000000000000000     50.000000000000000
H      50.130502214755346     49.328028195214856     50.157441094412874
H      50.231033590727861     49.084009164866032     50.795910690012811
H      50.291519913367004     49.321823615845858     49.469738035127961
H      50.023947420030225     48.824854727991074     49.022311665094733
H      49.771011567073558     48.815113695282996     50.553404411596176
H      50.405423198578575     50.100696707323330     50.602988030494338
H      50.350457714367394     49.179186439821784     48.873186952616479
H      50.351578970645676     50.179329556196500     49.354704220831316
H      50.755078116515236     48.666789960907359     49.179050011350711
H      49.883036825863115     49.760633172021365     50.511183586213129
H      50.066228016317105     50.175809618528433     48.646040329039032
H      49.636177043701906     48.348281540933947     48.876263476155152
H      51.014822831761293     50.151582250893902     50.711214388923715
H      51.022481244771065     50.090020911638625     49.000087627300381
H      50.620106658501065     48.034918702401640     48.882032595298433
H      50.762654158808928     47.600776590169389     49.299719440413661
H      51.203186535725074     49.551029500678091     50.836445535007073
H      49.406370831796060     49.603926112121187     51.115112137409810
H      51.501518582494988     50.236412014319114     48.385324050991059
H      49.431018363838156     48.448378141810281     50.147714386419594
H      49.485460631644763     49.083840656678667     48.874833485764682
H      49.997024580647874     47.609352458963087     49.447183909586208
H      49.035495024564973     49.020381963408489     48.246259817632144
H      49.836389329717107     49.647959055620731     48.229247271743915
H      49.474260154270425     49.029893267510346     47.937783364620969
H      50.743368575709525     50.006792224465649     51.199127433479262
H      50.271119619039169     47.493841638887055     50.124214582608026
H      51.236104446567801     47.261300469337570     49.329172277194523
H      50.608258147001017     48.557626500082115     51.117160879438245
H      51.182901254891163     47.239121442046454     48.536678738926092
H      51.046809424445577     49.820725224933447     50.280670274093900
H      50.966622232789419     50.509820032803539     51.449478567086970
H      51.250521616610961     50.356830277561038     49.677565447876788
H      50.289410080161232     49.826763121474357     47.706925225949448
H      50.004379264758846     48.564196665287952     49.861831682635383
H      50.704738625566904     50.827820445551197     49.993756967908894
H      50.197278067473448     47.072233331961669     49.839794934157332
