38
lj38_benchmark
H      50.000000000000000     50.000000000000000     50.000000000000000
H      50.099783016477978     50.056853469956607     50.571140227228632
H      50.172826598171156     49.343313002291758     50.139169973119685
H      49.891275000853284     49.594286974825920     50.541875610584860
H      50.455229125620903     50.368124160785037     50.340460024837256
H      50.417595532597915     49.051876779660091     49.766493705608219
H      50.648147779743709     49.691603282765655     50.821181974909244
H      49.484834004144375     49.844670684401663     51.160748076396722
H      50.161189458083733     49.964102628991860     49.509763803793604
H      49.438923743538638     50.560703947443898     50.906054529043487
H      49.798477765472498     48.961234709186819     49.308553892455969
H      50.126009095258240     48.522170920984010     49.153899230384511
H      50.837975400486044     50.397620253864858     51.021947728778017
H      50.600975165851168     50.269954375337711     51.747948232852913
H      50.557633396809308     49.857632923929060     52.317996542443190
H      50.700891098128231     50.623616079527530     52.443312088580313
H      49.731526800264412     51.077059627245546     51.168662560741005
H      50.084383957073975     49.971541775367697     52.880309427895035
H      50.322625705335213     48.352521996490751     48.648906207588460
H      49.975987617656912     49.781872517982698     48.956381948810275
H      51.023870745379448     49.473138155232967     50.374826237104465
H      50.533479957932826     48.925516271299117     48.998973524366527
H      49.225080889615583     49.568357551749799     50.673624629074773
H      50.361524760130024     51.294436700114424     51.369483212795998
H      51.019460615299423     51.287172552217108     51.499525433873615
H      50.734962607747406     50.097721488658443     49.018172477589864
H      50.908083305103482     50.155630350259315     52.867089530801103
H      50.397593148741080     49.789508578727194     48.438103408952550
H      49.217471556107704     48.889116558913372     49.746461156153508
H      51.457732943088004     50.386643888447843     49.048266647344391
H      50.471600133467014     49.405756517875076     49.387094318256757
H      51.648391393608499     50.868962714686482     51.385907798626100
H      49.290177852711196     48.338710363614730     49.228163547221918
H      51.338670285229327     49.779472499884193     49.932162345259485
H      49.641413511949999     50.132222689457045     53.174402164485620
H      48.813387459849771     47.942035777541783     49.639182351320244
H      51.304405882595447     50.520235808639143     49.790779469233826
H      50.299348983988388     48.213375580367305     49.852157305925111
