38
lj38_benchmark
H      50.000000000000000     50.000000000000000     50.000000000000000
H      49.677300092128178     50.608500447846183     50.158416904434738
H      49.467314731886461     49.873071952184922     50.050675199508454
H      50.578426403855516     49.994788135946379     50.398674441452194
H      49.356223917711645     49.634654078210147     50.692924470724080
H      50.016884996275465     50.695727815061758     50.604044554098166
H      49.308167039697011     49.268934048705532     51.046723739661843
H      49.375035592525862     48.766338345521923     51.325507700872627
H      48.771674120568484     49.592325753851597     50.293731345446979
H      49.563405735998053     49.234428399714297     49.628813791212366
H      49.117036663868028     49.207157904450703     51.847496497715873
H      50.321315712751826     51.012206530692097     50.957116102069605
H      49.784089811031798     50.576714659770104     49.518819001196249
H      50.038375012951363     51.022670670530758     49.265454948293495
H      49.667435581880468     51.581245435324725     48.981801387517294
H      48.824350049111843     49.561560840301738     52.428433502216279
H      50.105010685939511     50.249739433897481     51.133499713267341
H      48.888882367270803     49.180780474966397     49.408060489899512
H      48.416038229242091     49.058726968358727     52.138468151916172
H      50.099935303073302     50.054966875368407     49.011288427847198
H      49.421462032367550     49.033672978224352     50.556823810833606
H      49.092215819800323     49.980051121686515     51.815794854827381
H      49.349948641166812     51.214380094424612     50.269634543367019
H      48.589832746470719     48.967255069318789     48.691745270751873
H      50.771370675547750     50.718279013074742     49.378332860726005
H      49.370555127899813     50.942837229629284     48.780996341433827
H      47.917742285532007     49.240962130074955     51.746358824319792
H      50.110176605312958     49.346639031005473     50.654548681346157
H      48.965209986236111     50.227420639524439     49.598360970817531
H      48.221214685073804     49.001369652553542     52.750913867908558
H      49.002447619478524     50.722201545413022     48.409644401929228
H      48.890206295763278     48.823385156331447     50.990592420618128
H      48.116344606670182     48.822201479794472     51.418202243117619
H      49.776032953580014     48.544753785598282     49.503311035431423
H      49.665726255845577     50.028001185676004     50.978774184201846
H      48.792403931398276     48.929411152522988     51.513735768174456
H      49.382699736029089     48.888821396885142     48.630773408312976
H      49.256777659758022     50.501302961942116     49.241062763659592
