38
lj38_benchmark
H      50.000000000000000     50.000000000000000     50.000000000000000
H      50.109997197748314     49.798135920495454     50.590567264642772
H      49.494153691968933     50.499977742050149     50.229702075560930
H      50.056519269829494     50.357242950402096     49.653426247984335
H      50.742906636237542     50.189909677259450     49.806338963807690
H      49.435053696873787     50.254612500832657     49.511331233744940
H      50.574430987806700     49.898196798617448     51.034774206187784
H      51.362915115302457     49.834969227599522     50.913750262046058
H      50.732532678168511     50.398246426233840     50.341311307418621
H      49.938370707538418     49.548616253862477     49.679574779332199
H      50.508664982251659     49.305051202009274     50.479230832042944
H      51.689642736552067     49.825825874855063     50.199945028599402
H      49.054935895681922     49.985951848505010     50.244347475691725
H      49.322054705610455     49.570274690117913     50.159041380149418
H      50.803999839868197     50.430159547648081     51.560657202943439
H      51.286438018925949     50.156128870243606     49.260236368601312
H      50.858336406470038     50.942757169184482     51.009894869453042
H      51.619844320498885     50.142791797261303     49.768788205105878
H      50.387111041022052     49.072690758194710     49.772390610160620
H      48.660934077964775     49.255267389457885     49.971800580680373
H      51.459781166584527     50.408472245828385     51.039070269811539
H      51.088414373437459     49.433967244835578     49.455253577177885
H      51.644267811734721     50.120994649956934     51.530698442677583
H      48.604474253509359     50.277359615616895     50.567202517477469
H      49.381556662931189     50.643258357151311     50.829808003178307
H      49.798852835465382     49.172590704125462     49.134449279279266
H      50.488737057366684     50.112635667735340     51.885776550326106
H      49.905645226033926     49.573016227292513     48.818955844727242
H      52.247745133429952     50.125614958144055     50.305785610822092
H      49.144713885767139     49.152373562821019     49.536845075380093
H      51.813327656363427     49.538030209547628     49.481691624519875
H      50.729508103804193     48.514768954734627     49.780018797079194
H      51.024389401111719     49.742151193490486     48.850362557191332
H      52.374663634737388     50.571030216838814     50.706712095975085
H      51.041513337833223     47.963454884054563     49.605190742510409
H      49.386314614227373     51.360070711856601     50.616258152614037
H      52.111923803157580     49.895219465258428     51.612035964006814
H      52.883648564085881     50.503279234633723     51.289741229489174
