38
lj38_benchmark
H      50.000000000000000     50.000000000000000     50.000000000000000
H      50.280679139029530     49.871343400765092     50.477704830520501
H      50.588797495477145     50.187720958134832     50.727261321479766
H      50.082807837955677     50.532396935798154     50.639555857541247
H      49.783200625582900     50.356005690344013     49.358210758635380
H      49.009943009887600     50.273325925478581     49.324763792955565
H      49.333921360953134     50.172264264100178     49.930702668168379
H      48.378325224017324     50.640120912078345     49.622256032879754
H      50.500773330583350     50.303353569777151     49.550694884483967
H      50.420079362334569     49.388431406270698     49.794348520605709
H      48.445988149410596     51.060363048090046     49.091042499311648
H      49.472882548044261     50.081820216782020     50.598986888198105
H      49.957498185301937     49.229730088089916     50.476615859409399
H      48.242807503640513     50.354324933839628     50.239793571334587
H      50.871966232743659     49.713791542424495     50.032083653637130
H      49.784109147366102     50.832351676839181     50.097786715190836
H      50.757489289652625     49.699462925801285     50.668323450598372
H      48.405221989076821     50.981537889549074     48.407217155589208
H      50.095435426340956     50.739844054260118     51.099771549259572
H      49.623596223480327     49.586910276959777     50.881037083074062
H      48.908996879700531     50.638758119846827     49.987293351546633
H      48.976069715745361     51.101341546103242     49.448535079964017
H      48.606649271582114     49.856851222650576     49.937685918118078
H      51.479163075547163     50.105621482722086     49.702634468992812
H      51.886494736450722     50.343026409439837     49.467544017823393
H      50.956417347303272     48.976487441498534     49.919521966018173
H      50.052265604676229     50.435148150565283     48.657546828151446
H      48.939060362415283     49.360262582376713     50.578071261413037
H      48.647287470618721     51.821184166211715     49.000203803406556
H      50.286662482887110     50.412063669363434     51.543359192418436
H      49.789375421593583     51.185780123136844     48.660100783077560
H      49.078852385279511     50.700419930293634     48.474592216142270
H      50.466902989536756     51.338115258239931     48.988460492807569
H      48.350481876986649     49.070472871388247     50.871587451267935
H      50.745422531302601     51.459146705503386     48.424521926100994
H      50.248358283821624     51.299185677336027     50.374142016660976
H      49.248838656054950     51.186627899360055     48.188898593671077
H      48.741492102164834     51.068638598716596     47.937656022869120
