38
lj38_benchmark
H      50.000000000000000     50.000000000000000     50.000000000000000
H      49.674543687137572     49.796179846508203     49.504424767853713
H      48.932279003732695     49.748340923542855     49.215834377145853
H      50.335192070315927     50.473643913995375     50.548992198854087
H      50.093727795539408     51.103146702733078     50.626521799328088
H      48.549298489124780     50.089594459559699     49.754586650206754
H      50.640499586976382     50.503560258314778     51.282903585683947
H      49.814386231060773     50.504583051635421     49.543503217962900
H      49.734749859336347     50.360614069627545     50.427090981406756
H      49.413490430370466     51.031043443098298     50.950163240006113
H      48.417996901773591     50.587969600987847     49.189876199895174
H      49.999970169426334     49.567234744338712     50.596428312799738
H      49.808413229000600     51.641580948691882     50.230014240862417
H      48.044315065089890     50.146304429119802     49.094195853275103
H      47.488880957867202     50.274806157186561     49.108163094745848
H      47.724592708771823     49.827593608180841     48.612651844503048
H      50.657697634269297     49.513611475051782     50.796115610406424
H      47.877478493561064     50.913555607340065     49.091515126293160
H      48.625431913837616     49.034398318265502     49.042562597594141
H      48.964020480798716     51.282546635626105     50.498191822265269
H      49.245987241811775     52.119987324389641     50.474968485415225
H      48.716270229682863     48.517778166478330     49.428005352495681
H      47.403855085140520     49.877501777286412     49.500434801481603
H      50.518231876106569     49.639483008277367     50.240685550329026
H      48.084188301078214     48.731508121197642     48.733968944314249
H      50.086953527349081     49.191253061274956     49.656809890793070
H      47.757236344692053     48.418996833000953     48.438911705907998
H      48.923584485397541     50.457828202237820     49.475868853328841
H      50.274101601878243     48.741865380079318     49.074298507371402
H      50.180466394036159     49.693762609935540     49.230515596710809
H      49.511478512346613     50.855864243140090     49.062239593910377
H      48.729273810402212     48.291997142725080     49.915858872971008
H      50.650731639272891     48.871099567249395     50.564874609017089
H      49.009446362516314     50.782168219774022     50.804619816207968
H      49.538943682543589     49.486423467349148     50.852807648766714
H      48.380869425151857     49.796980039485348     50.191233965745248
H      49.580190228761040     49.648120348033302     48.849471447317526
H      48.360107532760964     49.919986227583827     48.280445319122421
