38
lj38_benchmark
H      50.000000000000000     50.000000000000000     50.000000000000000
H      50.293334399645232     49.300106803588186     50.111807257340423
H      49.546903453793895     50.421462246164708     50.348211776940261
H      50.866761025019883     48.996372119014993     49.894425673983086
H      50.929942917410735     48.359781346507631     50.129845143687568
H      49.587392891997652     50.962954412174440     50.457866323637468
H      50.405325946700728     48.626024628366906     50.027453111080703
H      49.311877534488396     51.456925136594947     50.700755068784588
H      49.787496286828450     51.442017634657496     51.313043110119814
H      50.283541379296373     49.383433792524997     49.339147724616517
H      48.739029856633337     51.960018281626922     50.740430472320263
H      51.256293695958050     49.478830978508675     49.738789212278334
H      49.059791418743941     52.298578149522832     50.373005403255235
H      50.036988972249716     48.957369896681243     50.722596789786280
H      50.983327808021542     48.798134500572395     50.787173222327588
H      49.762730525356481     49.382288957078217     49.276789511093909
H      49.824352951141336     50.979106590230877     51.024862028135331
H      51.063716959418834     48.216316203994950     49.562478905780246
H      51.065546977112191     49.255579345199457     50.575898936533186
H      50.082881092312199     51.604376160953834     50.764919348033523
H      49.967641917480591     49.566612095916781     50.977399159559610
H      49.929761271260823     48.558690889262721     51.208352550671378
H      50.469528542621312     48.078839980326613     51.251136798679113
H      49.443673496266442     49.464986144983499     49.781374302129251
H      51.510889915198575     48.731008937812945     49.709069365156829
H      50.030073043759586     49.135248624255006     51.682491613627789
H      49.850884110695297     50.093297443111695     51.031728115624063
H      50.328262952631000     51.363409934815152     51.331849035105932
H      50.911289609793343     48.268145501671277     50.936260682299292
H      50.432158046257001     50.250207823905178     50.041150693880482
H      49.425558560543038     52.618310140265613     50.133741549145711
H      50.154349237928109     48.339304025394355     50.524350682111290
H      50.491212381603056     48.946300342611920     49.176974363861014
H      50.724418068634506     47.764007894237352     50.182703153877910
H      49.517099561314666     49.167398596872722     51.173142433053329
H      49.204365720840499     51.963247135581469     50.023560874350970
H      51.607779771071272     49.014980335589058     51.132341291105696
H      48.820583561451613     50.511881489567685     50.220657445813700
