38
lj38_benchmark
H      50.000000000000000     50.000000000000000     50.000000000000000
H      50.108650241973450     49.535283567584941     50.332683423281715
H      49.330702282427190     49.883566490258360     50.044362856746119
H      48.732917067766003     49.933902838632051     50.117948052352567
H      50.600023558891053     50.183291572201931     50.413489184615656
H      49.582857095950587     49.331065760769889     49.752064201953054
H      50.698164644196709     50.670512963037559     50.300429679525394
H      49.323889867984406     49.877602856486241     49.514106385698270
H      48.624692930594861     50.403249014418179     49.899415375465082
H      49.457762818534945     48.776819766238781     49.338271777037875
H      49.895518112776564     49.198826614774795     49.349068427875267
H      50.239224536740366     50.557743501502586     50.545611191439853
H      48.993653431377005     49.533262658176369     49.328931866524279
H      51.011024544613470     49.903605393809819     50.543635771179360
H      49.631907028638999     50.619297828237855     50.839145526884899
H      48.935788055809752     49.940678598660305     50.895763389880180
H      49.176818294178332     48.691560454087217     48.835146077730819
H      51.446225300205910     50.326702700962500     50.528484737630670
H      49.708282924532227     50.518842764528983     50.135628349442030
H      48.702524528596193     50.484684584343363     49.357118904004025
H      51.918381356391819     49.925583855401250     50.462419207051056
H      48.111652424235665     50.947839286526417     49.306994648717705
H      48.617700292143383     50.520678397541744     48.852891951599752
H      48.634534656346446     49.264494997890957     50.342028942466960
H      48.198618030078990     48.949816550391624     50.653540104146686
H      49.414234588231068     50.092912774403061     48.782643087839553
H      48.183600358496179     51.029674386864500     48.712971500143752
H      50.511418095615596     48.702167135539348     49.484919312883193
H      49.162801801742688     50.973484526965329     50.492756296231661
H      49.775693946233226     50.762462405339370     48.813991507246890
H      49.217817996818034     49.756131084166839     50.526972380554689
H      50.563701550522374     49.417829348688159     49.682526263502027
H      49.328940986694192     48.159883170193730     49.268116586421932
H      51.351884246130346     50.906894862298749     50.226626593247367
H      49.899064506886567     51.303053560687559     48.387833019176469
H      49.697536567537846     48.314252804506559     48.762006622786998
H      49.367202050385700     50.392658913926070     51.248314842229739
H      49.880409630974832     51.096999670355828     49.678235578377354
