38
lj38_benchmark
H      50.000000000000000     50.000000000000000     50.000000000000000
H      50.035273917679000     49.926553782675064     49.415691667334031
H      50.660042542019468     49.547192886003998     49.345653739474820
H      50.440340347315306     50.249334621819287     49.415061374115609
H      50.127355651611495     50.671080206285623     50.382323708849938
H      49.650391928714448     50.158596718967537     49.653397904445676
H      51.036080531037712     49.024524540989106     48.909343464767865
H      50.959584597795470     48.627383093859159     48.324705265098601
H      51.286341299794245     49.012408046603312     48.450939775347905
H      50.530967561415117     48.807603915124226     48.609379020670012
H      50.101383088396524     51.399690188658539     50.162357475901089
H      50.603803199808191     49.581658608749741     48.460284579950930
H      50.017424477600564     50.962018516148255     50.943903963560025
H      51.144542395724315     48.983875913515462     49.416141525173430
H      50.372756705918121     49.008375813712512     49.207451185018733
H      51.099142456183586     49.794567089845486     49.823463256756114
H      50.438587406875918     50.443209078482141     49.913778199390968
H      51.383978793543335     49.560885358743285     48.425690041705614
H      50.183417804583080     48.882719933711712     48.170503597486778
H      49.975062975948838     49.816804208246943     50.718472046121690
H      49.072077901258673     50.106727873004097     49.578088459484377
H      49.572370422601900     48.691763950444148     48.053012084975890
H      50.143922422200966     49.319112132218706     49.950698083471856
H      49.144090128238744     49.601122021853413     49.340821007456825
H      51.047950413542210     49.991305790912008     50.583613608645386
H      49.620681235025543     50.122853460324492     51.122819245328024
H      49.292887690270220     49.330096543733106     48.911531037570178
H      51.503214702960690     50.277931425134319     49.862128215772643
H      51.769585754109826     48.583242302450003     48.575894235615394
H      50.016751990495813     48.540674791469002     49.508148318618076
H      50.721736225191520     49.031296261630615     47.668099433834215
H      50.353415330377501     49.511074171482676     50.820050506552668
H      49.821741190599901     48.938263296790254     49.970272534699255
H      50.246882083047581     51.662628005507614     49.747454766889724
H      48.499596423112294     50.032133613147643     49.366752508114779
H      51.173149752184976     49.305589365076557     47.728085629293133
H      51.641630946329570     48.093331547974302     49.062954302318559
H      49.118866655951017     49.058764200864459     47.779231055692854
