38
lj38_benchmark
H      50.000000000000000     50.000000000000000     50.000000000000000
H      50.034422981253449     50.293010283716043     49.380155346896565
H      50.307521582068787     50.202132795632217     48.761152752419434
H      50.475943200131674     49.591367657846199     49.076325291390646
H      50.170980808435665     49.584451817822092     50.485244257311855
H      49.819455922646327     50.341696243916473     48.879344651759233
H      50.311493343930572     50.363166686927563     50.426852816953648
H      49.795069917419148     49.647918793186683     49.670999154940063
H      49.388043212881968     50.632739197250920     49.661581256681558
H      50.717648755393334     49.290552564816160     50.358688882920241
H      49.085812574173232     50.325701090134345     48.827706464473195
H      49.972574880314802     49.546602316829507     48.972297563707009
H      49.139682317038023     50.968610633493675     49.334876893215174
H      49.186697696047560     50.049650156064857     49.693905135749752
H      50.587167370132235     50.715362048894271     50.903750660101444
H      50.426693872478744     49.143629384719560     48.589621243211880
H      49.870577376958671     48.661215876405365     48.766737745876924
H      48.480797103273737     50.240994594761581     48.725148565884489
H      50.177487621237603     48.847664378854660     49.135994604407756
H      50.589394168602780     48.454705075026048     48.586415631335463
H      50.602226602196261     50.175193636663501     49.574807361054653
H      50.397126237564066     51.201577287249734     51.046811583052524
H      50.622900075360739     50.792108339925051     49.967705962626852
H      50.471175021922058     48.235104539198218     49.127176507827258
H      50.231528435780795     48.103919028336776     48.582901463773936
H      49.462312501666439     49.520984816572422     50.251910238756508
H      50.799617927393740     49.671382056589707     48.668969651737385
H      50.432814915805309     48.951445642912311     50.072062264986251
H      51.005107961950856     49.752504032580227     49.486084368011184
H      49.925794671475074     47.645481584512339     48.838422812757052
H      50.738231852063585     51.688414717788362     51.321160904385408
H      48.525888088448177     50.207214794543127     49.513776685898300
H      49.232881700396213     47.796926625353464     48.554859401040673
H      50.502440303625121     51.030163459661850     50.466622641016293
H      51.097045184979066     52.018059171121060     51.892084147865404
H      49.299750509720518     48.283503555667188     48.251033861838685
H      50.359746749911110     50.924046035779995     51.662706566964182
H      49.349517765555802     49.462947734651451     50.818904199275408
