38
lj38_benchmark
H      50.000000000000000     50.000000000000000     50.000000000000000
H      50.396930781676424     49.774381773560123     49.537952713793018
H      50.577643532111715     50.456468162890864     49.925995208535241
H      51.020741240568938     50.585582107966495     50.268378073633222
H      51.179966323474083     50.050404464309558     49.677228757058558
H      50.780519765090631     50.093381798061088     50.720481116468363
H      51.560224537654157     50.911966298876990     50.273880123303265
H      50.139888407201198     49.849399388288404     50.975965587737072
H      50.631048985097692     49.873429351171801     50.085811228653419
H      50.427039826497065     49.570579420673432     50.537565695084929
H      49.985386803723323     49.762981056607799     51.674982950015149
H      50.586989177521644     50.280069501205368     51.586493504162355
H      49.598990206517072     50.583589893637694     49.959020844949869
H      49.730080211491696     49.366227595505535     50.588085955312124
H      49.555350025915438     50.371488402145580     50.653910617110412
H      50.341677198854747     49.155811682733820     49.068801777276448
H      50.840754279122052     49.661205739163634     49.296516276989536
H      50.763789102554526     48.950570475370441     48.445307125148027
H      51.589936509766744     49.855666113719103     49.408210227291626
H      50.854608964211664     48.680701369084986     47.779154859298941
H      51.120279462090231     48.708318729651324     49.042004943507010
H      50.248086108920859     49.336896702018080     51.470776271097186
H      49.779010475149690     49.398924836640482     51.971015682396619
H      51.442132280331322     50.231393348022081     50.880909628540230
H      51.632561065249575     49.038180831275625     49.249589921506647
H      51.718039043475045     50.875870428295691     50.905669695240306
H      49.279694352984450     49.124452675350746     51.065494192019216
H      51.364034094748597     49.387509753492715     48.885193533541120
H      52.174816983741117     49.775287315281282     49.863498456059432
H      49.359475950565397     49.153790229670008     51.758244022981700
H      49.385092275700885     49.974608341132992     50.369772429309961
H      48.950961223692339     50.262350622442803     50.851831451570014
H      51.936550607769213     49.164413561752070     49.723392697818042
H      48.733226536738869     49.101867103903160     51.202879276587304
H      52.079527089115409     50.468269296529691     49.937681000546114
H      50.992205757348650     48.639795579542962     47.187829237659265
H      48.280435970565961     48.816434425560828     50.918120940826128
H      51.546171611207306     50.942106411500646     51.613209748450053
