38
lj38_benchmark
H      50.000000000000000     50.000000000000000     50.000000000000000
H      50.083659690321007     49.474245965630672     49.953226469369447
H      50.189980181613791     49.109885601307973     50.571900345522216
H      50.814098349697204     49.604253805158166     49.775683817787900
H      50.279257082115400     49.994242420988883     49.299658256635496
H      50.561291739992967     50.378653471697973     49.770718980024341
H      49.858759098137703     50.406301654759837     50.333497958355615
H      51.255636462271490     50.606813282589769     49.712128034830869
H      49.504373341586863     50.537929250852216     50.855733842571439
H      51.558852593339857     50.700344795784744     49.274396666721636
H      49.308174105808654     50.632956900373003     51.321532516180518
H      50.751369999250791     48.979117089526767     49.442592567429116
H      49.389600188842209     50.645623369223863     51.872169254646863
H      48.623930363074187     50.417306645822279     51.195338645257252
H      48.050661145122611     50.205826295823577     50.920469016591362
H      51.481145749488476     51.044129982227489     50.242524218161918
H      48.979054887118529     51.247294553361087     51.195771052645327
H      50.312634148422347     48.614574655050433     51.067659403324207
H      50.285795917541378     48.766857582228994     48.951758182098672
H      51.733317029798052     51.437186646589389     50.602272291067912
H      49.569756758458546     49.436628826460073     49.611234373628150
H      50.983305506662823     49.928171489484825     50.278901261786714
H      49.281980006629176     50.062127037540101     51.800416749995847
H      51.680704880191968     50.117484595002757     49.012389224366295
H      49.929652249217277     51.058322232075461     51.694245337189216
H      50.271925957519208     48.274846814279520     48.647535624472042
H      49.956574872020020     50.302011388816027     48.757529491215386
H      48.095102794727616     49.711912223189344     50.492889727335402
H      48.904614054310976     49.474693609059706     51.641876035487705
H      48.186284217835365     49.326606601537662     51.504018766751152
H      52.182417575698963     50.736791959812521     49.123806928929348
H      48.118548325639317     50.253747628536352     51.718104813140087
H      48.723228652817298     50.259284110619888     50.650373110651287
H      51.273993236832091     48.823340983429816     49.074583825588505
H      50.254511323887733     48.125634610106502     51.521884792598058
H      49.694639338300242     47.760701269767772     51.275637653305090
H      49.600968016591956     47.848179453384518     50.661224077270795
H      49.839877995110683     50.514875579219044     51.573332816824845
