38
lj38_benchmark
H      50.000000000000000     50.000000000000000     50.000000000000000
H      49.614982320766785     50.622881221367592     50.110990331402292
H      49.222460783519892     50.557116077323982     50.561132291101920
H      48.643641181340044     50.240435707285101     50.415333153618029
H      48.350585089472297     50.337134235576862     49.693098096790251
H      49.014186660686306     50.639916435870248     49.377001381368373
H      49.287967358252573     50.334036421876306     51.330043144982696
H      48.894681013058680     50.119848474972940     49.974852790335405
H      48.278278839801054     50.826357804121272     49.852951352460749
H      50.263652268849206     49.933961315218035     49.280628836204087
H      48.056673932897880     51.276807826806746     50.339554252694157
H      48.671971410058106     51.006370676196056     50.687522413840945
H      50.702123186954751     49.335781067020669     49.145394735113634
H      50.345487607005751     50.132091422050195     50.531475449403572
H      48.177779262680353     50.360640466149619     49.011518829510003
H      49.638936158437033     50.054940894000616     51.714129351871755
H      48.138369330908425     51.804170535608023     50.109655572022724
H      49.325855763472276     50.974452493819541     51.816011750977651
H      49.692040098545874     49.629379709791188     50.360056820520946
H      49.359286598588994     51.218935329043596     50.177454883031494
H      50.672708903023370     50.165510445544108     49.614639936039374
H      48.879335749819312     49.928555135775952     51.535577837497804
H      48.748234070272630     49.506086795089310     49.761238569523222
H      49.300616978707758     49.976337653827429     50.665878310961176
H      49.747227800107403     50.217605841225890     50.840547098834953
H      48.394545581868705     49.703143033709956     51.303211162760675
H      47.625076032518386     50.345918455533344     49.504463807167021
H      49.085883204757963     49.895838326973745     49.373923236146858
H      49.651735422634921     51.137474304394445     50.683176655425157
H      51.098334404502829     49.306205523217642     48.505465080861555
H      49.029471752080731     50.502787949404691     52.216616958746897
H      50.320949426324120     51.097412712070280     50.965568913821713
H      48.984048064678902     51.306352858983367     52.077853547518941
H      49.773366297627433     51.570824387517135     49.839681017801553
H      50.404975654846758     51.626478242798107     49.349138835388203
H      51.092635326797158     50.102401675209016     49.998639686636160
H      51.007906568578129     49.929454700873421     48.955051032313655
H      49.971427161363977     51.735094375827813     51.164399193430569
