38
lj38_benchmark
H      50.000000000000000     50.000000000000000     50.000000000000000
H      49.537948503638475     50.449574937039195     49.836747915487727
H      50.495520595378977     50.350181362129696     50.292875656291038
H      50.704315885442071     50.796296902743507     50.104848124364821
H      50.929977275296608     51.130254302364150     49.776447978032316
H      50.862522739545206     51.456718466172333     50.488706985136609
H      50.144888356861166     50.122043626805869     49.354908347315273
H      50.833886069253623     51.978747495491255     50.879884104044947
H      49.567333616475125     50.115728776904390     49.070010361811384
H      50.429303030021508     49.924749640988011     50.595534749421589
H      49.054602832966921     50.813799158851488     49.597587480896230
H      48.352668650933332     50.632092564699064     49.869196173937581
H      48.890685600933217     50.184658437924618     49.237951304869398
H      49.227310276348994     51.406618945603171     49.901160410493688
H      50.359313609336290     51.888036702129021     50.312693906677623
H      49.849992214690261     49.869645694510957     51.072223791464097
H      50.942142292398998     51.662071937126207     50.016799403812712
H      49.926958725602290     50.943897947115978     50.294459624679071
H      48.840049412529233     51.383750680145091     50.264357135663019
H      48.613080612632572     49.967449248788824     49.598705822058349
H      49.600285485386280     49.498067666289792     49.945180322964013
H      51.462467223560580     51.644460171108797     50.216111880137262
H      48.527808091607355     49.294553554676796     49.735108783502881
H      50.799679722621718     51.878221411229035     49.405310165757818
H      51.618288999187904     52.189454321729968     49.772739154123855
H      50.059001867920124     50.153574026329665     51.472150664554221
H      49.696774782365765     50.222056174547262     50.590761907118264
H      50.825186669205543     52.220039753319440     48.828557259362533
H      48.051609510359775     48.788832537975857     49.434761133053570
H      50.240373547006904     49.489462300026204     51.563464362170514
H      51.871938290521811     51.539868629254926     49.780007733969214
H      49.273821480620029     49.009164828779774     49.998833343288311
H      51.159997299555435     52.292722299799159     48.100463066914905
H      47.811046606037877     50.935450283354001     50.018170241815319
H      49.776004205580733     48.700197805488315     49.967452400679846
H      49.304722331439564     50.772910110469468     50.421529540429432
H      51.177080982889066     49.939866749979721     50.164195301194361
H      51.305394460211510     51.930577738176417     48.989661824628769
