38
lj38_benchmark
H      50.000000000000000     50.000000000000000     50.000000000000000
H      49.965684855515470     50.484697102812177     49.618078921166678
H      50.233703460140099     50.485947384890352     50.379352809569269
H      49.859540773803324     51.048226380733070     49.746351627006106
H      50.127364357587446     50.975257377058469     50.214019805451656
H      50.134410195625485     49.456535344805793     49.986542235031102
H      50.171746513679217     49.165052557379227     49.362772658899402
H      50.920696313574368     49.165613994923241     49.620515644329807
H      49.602047870890040     49.556988426118764     49.798763678401706
H      50.956225887068470     50.314426030360956     50.345008978315541
H      49.047725818939675     49.331675261140475     49.510852539188910
H      49.787239526946266     51.134135022910911     50.661498545522164
H      49.643470869977257     49.465134294221187     50.388811322294849
H      51.041302569749945     49.926546514672864     50.884717317303526
H      49.004356768966886     49.815999251794722     50.282052178046733
H      50.688186590310728     48.543695408827247     49.532191390646858
H      50.591717823720188     51.302421944515011     50.359723646879765
H      48.449082417134392     49.328188332924562     50.473162095667760
H      51.553231289029824     50.815561166562752     50.339536343911348
H      51.223052396867004     51.249259492811106     49.896028077469055
H      48.808695187864970     50.380750298929279     50.095969168256943
H      51.163838316329198     50.473192279270350     49.631036462662834
H      48.146489517083637     50.726742195989786     49.938095241041474
H      51.722325995136536     51.668101893803119     49.739223607655624
H      48.759890807383115     49.346008404203609     50.030617155504480
H      48.726392424103196     49.782163228111642     49.243374142019015
H      52.132458597091741     51.157485942145428     50.460973100214424
H      50.375476787015053     48.502159790953080     50.206612079219092
H      51.320852698876323     49.329619518004229     50.112899059396995
H      51.436263867413373     50.867505334381427     50.828610585132509
H      50.465795019896078     50.414884121086331     50.837129347078047
H      49.873750564874328     51.078060465429878     49.098210716423999
H      51.486508191101919     50.611447978638736     51.469151158724998
H      50.702200826832062     49.593021899256378     49.440702015654246
H      51.706362794720022     50.684085211544279     51.942207560459451
H      48.457939914881450     51.295941302594485     49.679735862394999
H      49.345391897908655     50.826317274179438     48.990797914627535
H      50.193831714009484     48.520127983672232     49.354337138767704
