38
lj38_benchmark
H      50.000000000000000     50.000000000000000     50.000000000000000
H      49.791794042351242     50.459790603249147     49.874837139610669
H      49.771154155062924     51.142968374702754     50.003838399638575
H      49.598266086807122     50.498273403676492     49.303852107160004
H      49.485154770957472     50.582468380719050     50.338234778179626
H      50.802763256246507     50.018418981750621     49.962423453468645
H      49.757323106265041     49.471019030544625     49.776705825569948
H      49.134252549312166     50.131267721316327     48.901751702434481
H      50.673182142176941     50.685919566035658     49.833050307609774
H      49.097225718534474     50.366716208512088     49.961864725203931
H      49.097836936059842     50.183664892996887     50.849883476250277
H      49.094592085495165     49.873048920192957     49.612631647986937
H      49.373378026174990     49.554498941738011     49.049086412638459
H      50.040978275588778     49.566253502193334     49.274057808379197
H      50.026394659754708     48.773357529737368     49.822175885553428
H      49.013929622812896     50.721385418255338     48.551360694957090
H      49.868295220528751     50.123854889153009     50.598350216378336
H      49.587109813971615     50.410163017190406     48.598055536849046
H      48.524726358339414     50.177411623968290     51.067230140501458
H      49.585265988121122     51.033656797121488     48.478368090545985
H      49.885829909747933     51.719613379129811     50.547081052959918
H      50.667767546335611     50.920507238846604     50.514472940352412
H      50.583688456268078     49.257992902831603     49.097096199836173
H      48.731275906078210     50.351755101415691     51.770897420549844
H      49.262607971359884     48.739449632517790     50.051198820362600
H      48.369418740666816     50.763651212214619     50.676848959647700
H      49.199286525768450     51.952833829702293     50.343273921861361
H      50.539007674474874     50.214491794078462     49.447813717822335
H      48.455195675033899     51.100301200503843     51.073484490830360
H      51.170425771748974     49.880010689322063     49.440693521953257
H      49.094042145629444     49.939554365825906     51.689271919196628
H      50.135387352049712     51.260154755563427     50.584324207953216
H      48.405878809712519     51.409868817123190     50.210986417524111
H      48.658243406314263     49.564168869946478     51.082735367171900
H      48.952916247323358     50.931171054161169     48.091627443705107
H      48.754874492694825     49.890927546012755     52.152541815297255
H      48.703120214477742     50.808287922728937     49.596428839913081
H      49.992539576927513     51.435289046041497     49.468931730831770
