38
lj38_benchmark
H      50.000000000000000     50.000000000000000     50.000000000000000
H      49.357385470007948     50.121927065723398     49.708597090338898
H      49.203470717349219     49.563804791678848     49.788705299259902
H      49.030447686997924     49.985603032793939     50.229562761747850
H      50.297745481494147     49.766865838117049     50.632516540045636
H      48.955410509393296     49.098827974768930     50.183816903237926
H      49.494140734065411     50.556236023898506     49.488545405980034
H      48.979329550732118     50.485879092183715     49.717674894760115
H      49.696087145287393     49.331278689508991     50.296245623604683
H      50.118358170638736     50.361502587226362     50.406289631509487
H      50.167163477874446     49.074465073833380     50.939088401551388
H      50.319190488650740     48.564402823946345     50.894224509083195
H      48.495722730341910     50.063827775975362     50.488560573905779
H      48.467748942412335     50.291006509422807     50.950154056254895
H      50.392796342274664     47.904761709122177     50.967268514995069
H      49.180423630864617     50.675761235243719     50.613784201818746
H      49.151459581985925     48.552119800713932     50.719300185895257
H      50.397077414141307     49.507279235937986     51.534528423071443
H      50.992371742388151     49.698567733103665     50.844300349741957
H      48.560508597822974     48.407315548722451     50.477012892986075
H      51.004001691819845     50.395646575004889     50.977132191736125
H      51.316941768841453     50.546788514341820     50.355399081016714
H      49.492090581993097     50.409083572752145     51.198190576806518
H      49.199583680617692     51.110391514492967     51.018117518693934
H      50.117765934652759     50.038296424727399     51.651181848281880
H      47.957248784869968     48.621284385233373     50.817669968862887
H      49.774177278577952     49.070090120827913     49.778462251742418
H      50.161201784005819     49.018377754852906     50.369238153216685
H      48.838980741066216     50.562184149727081     51.202477789521460
H      49.586236577188181     48.357321653874578     50.430046575228005
H      50.698716072115943     48.603022265525475     51.567862438097663
H      48.197548323141007     47.926693736684101     50.492164656480945
H      48.415204937051222     50.258544169264233     49.689704271685073
H      50.117471452863569     49.252710371689865     51.893209347113682
H      48.874809062918899     49.213189904693735     49.561707362095298
H      47.745517310304713     47.788717435398283     50.973841673606856
H      50.083156982792637     48.029870492862905     50.363684638164166
H      49.410944868390459     51.202950318752222     49.415203453285088
