38
lj38_benchmark
H      50.000000000000000     50.000000000000000     50.000000000000000
H      50.662491653226553     50.186726991469804     50.075605373101851
H      50.143888016153049     49.424822773246611     49.674956027745594
H      50.002721774723767     48.928052026715797     49.333470502589080
H      50.600779095786464     50.698450820245874     49.597443412864251
H      50.654565630462578     49.337244172018636     49.501235583571351
H      50.483589200016482     51.101175136331001     49.221442830997475
H      50.317682621061991     51.429652175602975     49.675405602034097
H      50.426305462799611     49.780149881023625     48.969551195655626
H      50.468384293320270     48.293397205248219     49.349686247182099
H      50.095772560398132     50.098280781181067     49.407810082798328
H      50.253600937993042     48.001504339079965     48.951419928741281
H      50.856425167769395     51.382019517887727     50.190251316850471
H      50.633271834488077     51.843207894255251     49.256126137498086
H      50.998930749079079     48.258034839133387     49.846791264378872
H      50.526990371640792     49.156532313136161     50.237257262525993
H      50.334342122320606     52.420428325516284     49.046263057674764
H      51.059151541414195     49.183210687977393     48.856251670757828
H      51.008153270505673     50.975331050947943     48.969994929984139
H      49.940405596874434     52.071486542756567     49.898242793646979
H      51.008143665129587     51.270145209697397     49.422993792543267
H      50.892109136050976     49.484772341688256     50.632904447174020
H      49.442510124639689     50.009423332706668     49.742528581134387
H      50.019481847400151     51.813102611443135     48.621561114027621
H      50.179480925957407     52.029823960460206     49.389850915930211
H      50.435630786429563     51.525426505107191     48.253406303811765
H      49.548626465248745     52.232586413907171     48.292000000344501
H      50.396021173437148     51.350958052789409     47.648129936355971
H      48.965445455206265     49.427616529604101     49.535239354218461
H      51.327821294660474     49.971746466241107     51.086271022701908
H      50.873108851987183     50.380115330647605     51.336878894208596
H      51.243440083775909     50.959227594518197     51.596570499829475
H      50.265279859272198     51.239151138648559     50.202834582264579
H      51.777559556276017     49.755673176240322     50.870319084590577
H      48.364675318175721     48.951287984242200     49.752085448770558
H      50.991764188992782     50.845423895762764     50.957700598797210
H      51.792885053941319     51.245752345048423     52.091131661293971
H      51.362642431984533     50.326236809162992     50.032271233644430
