38
lj38_benchmark
H      50.000000000000000     50.000000000000000     50.000000000000000
H      49.652633118314967     49.531153191152292     50.274036100305985
H      49.841537555061812     50.131314623246560     50.691959511965699
H      49.511994853190387     50.172749515782158     51.314683481804366
H      49.370719642306803     50.091276407248095     49.953533827405082
H      49.680907424054908     49.032150653225074     50.370978556253405
H      50.392306662857003     49.862378983969023     49.697313884234063
H      50.970682242007264     50.101628029547904     49.463862332792793
H      49.591160351525787     50.819119033053660     51.627727580530888
H      51.154560828650631     49.603859953555819     49.740290931650094
H      50.160649272701811     49.830129992873005     51.621136327032282
H      51.381485285009354     49.877354526542398     50.405141522777846
H      51.044536228306214     49.000803535753512     49.254026778288235
H      50.199160661759727     49.272364989914259     50.046799227532702
H      51.474711087996148     49.136972281799494     49.755076083399423
H      50.460357256424636     50.657684140760573     49.731225927407706
H      50.402621646010942     50.965475392976586     49.197416242326938
H      51.731865161600354     50.012479825109935     49.445773852615346
H      51.996922510136805     49.915524437708434     50.634406628364452
H      51.794924650669152     50.674194782861974     49.217609746871084
H      51.022760388218067     49.123122136965272     48.669449358483092
H      50.593934512052662     49.176697366219109     50.357120870646057
H      51.279748279515296     51.220606391072479     49.411860025691290
H      52.025481758904313     49.114389514215603     49.672981222780855
H      52.495562941645979     49.486025868406223     49.476987637584763
H      52.372274088930958     50.561393032603853     48.770247552851835
H      49.451578372022119     50.784967256841469     49.675567809117609
H      50.326784666339961     48.682065504544397     49.620015515454767
H      49.627862215080590     50.969575433554773     51.025861155311354
H      51.752156646413972     49.182500646612453     48.684234984031676
H      50.250154884376208     50.490902533586301     51.214302047786127
H      52.113381246345391     49.046582221627041     48.065485367245529
H      49.843709137599483     50.887377139346810     49.990637656217757
H      50.138535595969088     48.019314922362838     49.861210744818294
H      50.616071584609443     49.981725007948384     51.363184792711209
H      51.327378194721909     48.730821436051976     48.832548314357211
H      48.702798623219259     50.128041038395324     49.583443493116206
H      48.715010778525993     49.338474884043094     49.444763601975858
