38
lj38_benchmark
H      50.000000000000000     50.000000000000000     50.000000000000000
H      50.165842243221505     50.411304917981631     49.691936060463760
H      49.515622451802635     50.847459050430054     49.605392492282945
H      49.604162188189527     49.526140269040376     49.576814031064579
H      49.541361869097514     51.086629595858589     49.026722816434301
H      50.058286200078363     49.229579252137057     50.057787150949331
H      49.174765737505446     50.274602673623527     49.423253282500568
H      48.868562408635967     50.052933060160697     48.996213656718751
H      50.533328294210143     49.112572889981458     49.894995177340228
H      50.006719921714620     50.465553204191032     48.983466555609290
H      50.159208174394649     49.827261707425741     50.483760493854248
H      51.264086556279572     49.303363099207196     50.144519989628023
H      51.512546536762024     49.736039150680632     49.585209982049577
H      49.291796460961237     50.550181152948468     48.657245400490048
H      51.253555073272643     49.611678515870928     49.175324905549076
H      49.161833356652444     49.181195610668780     49.369371410157470
H      48.307608160634786     50.022572533138344     49.515985984196391
H      48.608987253938338     50.771870935512645     49.346181297950061
H      48.761335441439478     50.708852393490830     48.121729546497640
H      48.335331419281395     49.541935206932486     48.936503031443451
H      49.678064273653192     50.311941964459336     50.769165356216185
H      48.953686572445193     49.655057558427238     48.605552418396975
H      48.905579920500351     49.088355436497281     48.917722473656923
H      50.562204915076450     49.277226112157308     49.111182327454550
H      48.166763997486122     51.007471332955511     48.142168128669091
H      49.020308933480557     50.310672110828605     47.707998338616484
H      49.337019519143375     49.533100101585518     48.905646471169440
H      49.575874216545017     50.453830887798972     47.155695236864432
H      48.259512776396313     51.232356475805005     49.359154197387788
H      48.748532836538210     51.354648725576418     48.958666627387686
H      49.887674571765857     49.779474944241436     48.563099469505580
H      50.459991604355160     50.965936160555565     48.609458865273076
H      50.015201087433880     50.633753116286620     51.192620658538488
H      49.092102278775016     51.208925364283864     48.282941509291632
H      50.308445472253155     50.655455139690623     51.729943414668689
H      49.023170217490097     51.915184537465741     47.948349694460916
H      48.903231914723932     51.950217118704018     48.609631006303125
H      47.920110579422591     49.259294502029604     48.361366621720279
