38
lj38_benchmark
H      50.000000000000000     50.000000000000000     50.000000000000000
H      50.242486402379726     50.467497483065031     49.822922173691786
H      50.548579483330741     49.780676809133801     50.178353791527584
H      51.218223037479106     49.533396131516220     49.888515983592356
H      51.644753515363256     50.035540517006126     49.675194900758967
H      51.178260669253191     50.141150985841904     50.293328541530222
H      50.862920752933398     49.739425044749879     50.877581891965306
H      51.057219336424893     50.397645919016284     50.804996033405757
H      51.492306049103462     48.864039151752308     50.107141614798991
H      51.609870795352883     50.112424171647824     50.709996418866645
H      49.673675832386174     50.979789442429592     49.935652696476161
H      49.713329945018984     50.476841268661737     49.763515005643320
H      51.939031784566112     48.434689786693923     49.666491979601290
H      52.314243925979184     50.107956214907460     49.439235197459766
H      52.333021219099400     49.455639387691107     48.998196073881147
H      51.472501232128948     48.107612458061304     49.262599306784004
H      50.933673822372086     50.716076302718299     50.109571311503679
H      51.040921176984476     50.736643491554055     51.255814664794407
H      49.951652439579291     50.117523811202226     50.535421239280950
H      50.520031868743203     49.072655035684797     50.905044080771098
H      52.223506923736743     48.932250686270400     48.736948107172452
H      51.152191996541404     48.223322839609281     48.807535129397905
H      52.234305401193907     48.159234748765222     49.155578584997571
H      51.275072253180895     49.432742392513497     51.346778193236851
H      51.306441576681138     50.024878884442387     51.669775114974783
H      50.824393662983127     48.697961742233922     49.174159429509025
H      50.090756743082117     48.817254038067233     51.289401973274053
H      51.571805706795686     49.183221922549343     49.278437679806366
H      52.904394397856443     49.261558276260992     49.374259532287340
H      50.923194694896267     47.642339273677543     49.251041826357678
H      51.852517007631832     48.137178917034717     50.108192985995416
H      50.746690884888935     50.556323116202648     51.862286805149694
H      51.571580412864577     49.662251931857661     48.644853882800653
H      49.893429000471414     49.632819201339927     50.825221073856945
H      50.698728930969580     51.270656302317164     49.994170282098345
H      51.977331278015228     50.221041632333467     51.183025441644112
H      50.353616438161943     50.906268945006609     50.974603256068612
H      50.860479586225459     51.289387388174106     52.102675773577751
