38
lj38_benchmark
H      50.000000000000000     50.000000000000000     50.000000000000000
H      49.666673428711476     50.340775531364287     50.524450441753153
H      49.195947581413833     49.942531507571310     50.729618471036929
H      49.633747530707993     49.440257540672903     51.175669466403662
H      49.067106468135648     49.189691428952415     51.353870909007370
H      48.916494077815869     49.350977928652675     50.891969263285716
H      50.340740802249165     49.576423893140209     49.603710412853964
H      49.320628630697975     50.562545394682012     51.222603272043635
H      49.830682194320779     49.255578267824347     50.047340253732457
H      49.765034145325146     49.777522681677908     49.144789452541858
H      50.095919889433638     50.328229908643593     49.406890793117363
H      50.076008860970063     50.418657171088796     51.029040224275398
H      50.638922531737059     50.063039307497178     51.349905850982296
H      49.179300628640888     48.944994248441795     51.921653251975734
H      50.431485796665562     49.403404361502773     51.224612541817393
H      48.808346804708137     50.989937806706195     50.874454635074414
H      50.070723545854861     49.579574845106563     48.520708145306060
H      49.623446597092915     50.988747614564815     51.788183262556132
H      50.194669591461654     49.659916118244787     51.582678077960708
H      49.057185269572621     51.541439455895450     50.981834064056443
H      49.550790075513618     50.415416171737654     49.295139754929572
H      49.715193778427398     49.099457658137794     49.130557266548351
H      49.266507947122065     49.983011064123730     51.242911711524357
H      49.266580561214056     48.241674515447244     51.608190860012492
H      49.032491928372544     51.216555141375586     51.546377140343814
H      49.048573965619582     51.919355653286900     51.904537119830820
H      50.702886441035275     50.114434875827655     49.946935946367709
H      48.502493212676171     51.346358810818238     51.959676291292851
H      51.266519379727015     50.139907646075663     50.355415793271661
H      50.447602177316384     48.947140512152956     50.938052534148561
H      49.139214776233324     50.863760011394831     49.548414417288846
H      49.864986994303791     50.415285825942412     48.661612711905818
H      49.238438713967824     48.958689501628015     50.461200348218739
H      50.296284262056993     49.077006881605243     48.217688150306792
H      49.450291321195593     47.630506363071575     51.312728700916935
H      49.053358716342842     47.092107881794021     51.550663356057598
H      49.979906535345179     51.166463392196604     52.391427880041654
H      49.711646718352611     50.576558048280894     50.038553222276477
