38
lj38_benchmark
H      50.000000000000000     50.000000000000000     50.000000000000000
H      50.272668447597383     49.590048114822416     50.075245273827129
H      50.224798163053144     50.565373157844505     49.911703165216252
H      50.124104124677778     51.249149660081997     49.523534926453415
H      49.798654040197647     50.255478452655339     49.516593428759890
H      49.793794149486857     49.040170473194500     50.169210516930889
H      49.250900391973673     49.964039315729543     50.236789039591031
H      50.055431532886502     51.048736266412945     50.173310731380042
H      49.461260411217332     50.523775007852741     50.451091336444215
H      50.144173216191973     50.954907202285547     50.754104670741320
H      49.845625289692926     51.748046102329312     49.163222087920154
H      49.120279877473159     50.622957480022244     49.941859317384555
H      49.859525074240771     50.230338517671370     50.502729844788071
H      49.884422038010470     48.668915410320295     49.658090510258184
H      49.336844219008569     50.312477719939068     48.883488444975271
H      49.942339859823178     50.127261964880709     48.578189057752830
H      49.665734656382590     49.724990444832876     48.469740881063686
H      50.063658438115660     52.395195030035957     49.315764761465935
H      50.284782168600444     51.867642716185792     49.953081451674642
H      50.849228494373214     49.876527641147661     49.755943541551723
H      48.911818268245291     50.503314376552872     49.110043329160156
H      49.957697426829711     51.254621211579874     51.328551318594535
H      48.528154437716239     50.630248279500577     48.579684629802863
H      50.202438753311561     48.956941116672539     49.137393743017121
H      48.133441928293813     51.047022749865469     48.440847311465376
H      50.587591955142067     49.608554582347985     49.417869746627133
H      48.806808022482301     49.973397661407930     48.934531998921322
H      50.637571091995127     48.386738518942195     49.367888772726772
H      49.771410381630233     48.343218754051236     50.441088172633663
H      50.811355961018663     50.605724276174236     50.163928889076509
H      48.633780108861338     50.258626534491221     50.213401351349361
H      49.224630610004461     49.030359913332369     50.345648629096530
H      50.471087996774067     47.656417930290026     49.642586253227023
H      48.129321341902774     49.831342227571426     48.841463341596373
H      50.841393404960847     49.257835238965626     50.365976769981955
H      50.061629162164806     51.689947057088368     51.078006126478137
H      49.162690225827504     50.185392673464960     51.006012188818957
H      49.860845856170911     50.622436936273850     48.661069679037070
