38
lj38_benchmark
H      50.000000000000000     50.000000000000000     50.000000000000000
H      49.402180325047382     50.122425273371938     50.258982641390482
H      50.183367248714475     49.671629251054874     50.399854615447019
H      50.478553357813226     50.352655711052627     50.432042372122737
H      50.581758398350296     50.345736822558820     51.118894560147126
H      48.869313465682559     50.027414756961306     50.373535661486208
H      49.710905338420041     49.050577137924655     50.413270264432967
H      49.565875848507581     50.036562814680799     50.768799003654905
H      50.911555151633024     50.157008139202965     50.058176353326466
H      48.419229283921496     50.585531875141356     50.464816313940588
H      49.017362709253554     49.437674363332825     50.069293909213023
H      50.232411940789568     50.675397879476165     51.465573557723232
H      48.710150398405212     50.973293056043019     50.270065559726511
H      50.876277313465110     50.017404887445082     49.445663961193070
H      51.547547987832338     50.245142126936862     49.859260194995649
H      50.871175545296573     49.743247975769087     50.899960538306892
H      48.215908901104619     49.876680184262398     50.064896969508382
H      49.934884900165294     48.846267546926043     49.973903549764955
H      48.374218246358382     51.515893786325869     50.064608489965444
H      51.427965775453650     49.848800766266471     49.014072963581661
H      52.004046173052956     49.851577450480164     49.547459413129189
H      49.272582811273075     49.839872943796372     49.567893101489716
H      51.850552399412955     49.565235237765627     49.941109694147876
H      49.572932287220510     50.677243795590243     50.724291866923501
H      49.981496249292682     50.212528267265732     52.050025542579910
H      48.160232408644717     51.368484206637646     50.565494961919491
H      47.969392913663242     51.724991842239795     50.888217038026298
H      49.954928830169024     49.627903573543747     51.926943794492729
H      49.695925614725780     48.632949366389724     50.698220753169224
H      50.110886219100728     49.978429259083363     50.829016470504648
H      51.594722842270251     50.567693358714912     50.241072885550288
H      48.409448426340504     50.936047170502675     50.916433549980582
H      48.310948938697521     49.452670242860648     49.774944623835445
H      47.797654421997223     50.298692805580131     50.266996448343221
H      50.279935865361246     50.093228128037687     49.440669476144429
H      50.805309812484623     49.237743455123095     50.371617995726716
H      49.916400305777678     48.974328216458694     52.332118054343432
H      48.829341614367756     50.243684867625525     49.605980745402086
