38
lj38_benchmark
H      50.000000000000000     50.000000000000000     50.000000000000000
H      50.545459680152824     50.079971513910380     50.348359547247497
H      50.172782406727229     49.613008756992926     50.462437810488069
H      50.153317923491137     49.751877403637934     49.532015985438022
H      49.727048073368906     49.329292519114325     51.050765040491633
H      49.543387556633540     50.002330578694483     51.327054888411489
H      49.485528421287277     50.293547378119115     49.642500106417828
H      49.680094324971321     48.806391676695903     50.898424984095520
H      50.896237383266879     49.826112756975647     49.341172312586231
H      49.692761124464354     50.193380674403123     50.877498527117439
H      50.640756677459379     49.811830236084731     48.596823533472950
H      50.256700265192421     48.859709037546814     50.224595077105626
H      51.239923370979383     49.927991489585686     50.627933372160790
H      51.511522208862054     49.534963472222913     51.224048662606954
H      51.294973566663266     50.426136107937559     50.352540956443001
H      50.985759739993085     50.803447207357060     50.476296058394347
H      51.578702490842055     48.860192833192805     51.524854980725436
H      49.023843518205169     50.009042379411248     49.140450576851428
H      49.056556749917000     50.492755452190650     51.166497828841820
H      51.544826600758824     49.415041857044763     52.063878738207968
H      51.500434857052888     49.792682963999269     49.613166003613451
H      49.000038247933254     49.911893448548440     48.375413697217923
H      50.952529053281744     49.225747733758986     51.568177108047976
H      48.622384414284568     49.859289135913187     51.411085706326986
H      48.381617702434951     50.257632633816982     51.778950341639295
H      50.139285275440486     50.559434578832111     50.830458960684290
H      49.972885592228835     50.913684270123539     50.157498029061017
H      47.910467568637102     49.979468033755445     52.304995014421877
H      48.362224940809078     49.990106829968852     48.991176747017519
H      50.259617872307935     49.259189518496811     48.956248265384545
H      50.913387794449655     50.390778118752451     49.341943653933150
H      51.994674932659962     50.178241430762505     49.752657610350774
H      50.827880578320659     50.859599329959707     48.792939849855237
H      51.641517355774319     50.902506724800027     50.449063181875914
H      50.813866114590176     49.898990076344965     51.663010202566078
H      52.090486715593244     50.551233949120828     50.612960927247173
H      48.984634939108787     48.821576746147059     51.011860544679138
H      49.194345513253971     49.646788304895665     51.895449779291766
