38
lj38_benchmark
H      50.000000000000000     50.000000000000000     50.000000000000000
H      50.488674980997523     49.477476717870552     49.730694084997147
H      50.660876752783949     49.365285591763019     50.321848310662986
H      50.877356483725521     48.777468046467668     49.676782796878840
H      49.480297932081008     49.444479924470592     49.900794289845742
H      50.518036914085819     49.607278329191637     50.948046558939623
H      50.870130368546789     50.143696009959839     49.563531122091334
H      50.062212145284256     49.652903536964672     50.436548859162208
H      49.595220921352336     48.795744340590048     49.594576949911243
H      51.104901050161509     49.888767900907474     50.690711146800410
H      50.118048994579269     50.423298427862505     50.640761657465845
H      51.154491793792545     49.228840914010057     49.080653111683510
H      50.086651240982988     49.814664563251334     49.389271117619508
H      50.375818497671844     48.871326491798655     49.110624885229392
H      51.321049665720103     48.785486494054275     48.470619746761692
H      51.127672801663977     49.800430878064553     49.158951643343201
H      51.168950243295576     48.374343435523450     50.201248722588687
H      49.979796034425675     48.508118005190767     49.199295481148724
H      51.923196126786038     49.815404647457825     49.175626434976785
H      50.625706187849985     47.784758784324900     50.238441351863251
H      49.202119727415315     48.343085993475647     49.339306536547213
H      51.635844321551886     47.843826096588110     50.098037764505186
H      51.741034269318035     48.568604330603009     50.240793355113745
H      49.530560012172586     49.558144463861474     49.387343696608212
H      52.113666852967754     49.948596693611670     48.711866967268513
H      49.637351210886720     50.405618480408840     49.647245651107021
H      50.805704205728219     47.939321640348169     50.990805007274481
H      49.963396580056560     48.548703272364932     48.685308535736176
H      50.101179552068068     48.053363732360928     48.988768880047004
H      50.295538871354424     47.682082690160485     51.054592258060815
H      50.857912000555160     47.510742331751239     51.408947018634947
H      51.835666168781465     49.138241580359661     50.728124642826309
H      49.089743150816588     49.006220876974879     49.484585163775364
H      51.579226502389922     49.500836280259875     50.421428956165215
H      49.527646086334030     50.350398539637958     51.168680072265033
H      50.667237456695496     48.231870551795069     48.896161493844318
H      51.497251045992734     47.529109794134655     51.739366147574295
H      51.869317058411312     49.303253497188521     49.274850937409354
