38
lj38_benchmark
H      50.000000000000000     50.000000000000000     50.000000000000000
H      49.646710888093970     50.441055116133747     49.884589770342039
H      50.196867914161786     49.562901312217477     49.834421107024525
H      50.461556365472980     50.038377653843732     50.261479563862345
H      50.108343278240490     50.822527575516347     49.451418731361393
H      51.039311151972981     49.932886256147022     50.233230730838116
H      50.024890050866354     50.715452915062102     50.361050345835885
H      50.930219517926758     49.662687697652323     49.724494198256167
H      50.878178018721336     49.489582687887733     50.460203360172407
H      49.724857850333443     49.328446787763639     50.185727406527626
H      50.276298339086139     50.309646533703528     49.072239906908258
H      49.326853554756283     50.047142915488685     50.489928465206852
H      50.588884510789008     50.550240774560308     48.472942465832013
H      51.254199544847644     48.955860641238473     50.194285383356714
H      49.372343848075879     49.385149884902390     50.851262306889247
H      49.422459569781445     50.749098509763961     50.440592437802856
H      50.087464422632813     50.760813168291527     50.886423167960182
H      51.080168296162370     50.654898357251056     48.990162562579556
H      49.980145677823927     51.461505015885216     50.156081127107001
H      49.102496261198397     50.507827334955465     50.735215281351870
H      48.502534161678270     50.719801278815773     51.077333751765828
H      49.739163748496125     51.951494529871795     49.991609109398247
H      48.125855286405574     50.361508232820597     51.474434410366435
H      50.101224248923373     51.265209659990312     50.951390563635591
H      49.417224981785992     52.045001286980678     50.527463921037338
H      48.762212531870695     52.410147767585094     50.594317548556006
H      49.026545942096504     51.624233953657445     49.854543616240420
H      47.920626170425066     49.869700095086543     51.844641766151085
H      51.248707554712176     49.718877306624485     49.052226725958825
H      48.434932044605922     51.937284662826052     50.505744145576898
H      48.844804964057793     52.974911348773880     50.628260713821916
H      51.503184777746803     50.342124843619622     50.739627431429092
H      49.075727419200113     53.655358942535571     50.579253240472482
H      48.157430612630662     53.000501922024647     50.814694353990845
H      51.416023347186368     50.977887365872746     48.713896834740254
H      51.837384445965455     49.277011572689105     48.959939342891431
H      51.864608885235704     50.867764808829300     48.302743920463612
H      49.228930406717147     49.627290908906012     51.312111027744749
