38
lj38_benchmark
H      50.000000000000000     50.000000000000000     50.000000000000000
H      49.956040839326832     49.723767436471405     49.285555687540523
H      49.804450552542505     49.246371854342321     50.018943608064262
H      49.318911255851987     49.262226325850577     49.154738586657309
H      50.576778644899967     49.944927415225344     49.159197831843763
H      50.279162595014448     48.921992497424156     50.302216032585108
H      49.189692286241552     49.605809930669459     48.648798188337850
H      49.787271010234051     49.890587021230935     48.435728346014116
H      49.178186054222209     49.680442070852038     49.634349867933039
H      48.752828880073857     49.932468205989210     49.697043050822465
H      49.661831611240807     49.670918293189317     50.659171960931069
H      49.885025613992816     49.667629361792429     51.144728156740484
H      48.861221142267610     50.696291813991273     49.717799056388301
H      49.794861668146048     49.019510479364499     51.347528527633536
H      49.421848180320694     50.203053749617702     50.683317797732549
H      50.276180818573707     49.192336681705733     51.301056454646535
H      48.640308393274815     50.067479049014956     50.677944128932097
H      48.180552198331540     51.046824465830817     49.680953903482560
H      48.212711737476887     51.665614259967668     50.001933985468384
H      50.617396285038907     48.745528251780549     50.768243740377763
H      49.267282247874562     51.037160726255237     49.869885518912248
H      49.339828233894984     49.154748166143101     48.090047587529810
H      48.284133592077076     50.511163486835990     50.840610274525972
H      49.584538297028381     49.023307051449656     49.607631097374295
H      50.037998214421378     48.266042019564779     50.473956331422450
H      48.219259784942402     49.454600594631920     50.652493259163059
H      48.789656755843801     50.915031463359270     50.465463349105022
H      49.221127853048046     50.207228139206784     48.925127711953877
H      47.931234576560371     51.209348793345100     50.696098083079995
H      49.608158944974811     48.470754217336570     48.079157189799787
H      49.742447949100807     51.455042323089252     50.342348486233092
H      48.924503121944866     50.297740227267205     48.188468412859471
H      49.373748782401023     48.892699074449823     51.731512224300694
H      48.931877561171468     48.678902147243463     48.183201808827619
H      47.244864654463058     50.832793741331031     50.615576755487709
H      49.868104921468223     48.582503360552742     47.398311277750238
H      48.249791859685729     51.418478872086254     51.304281347960725
H      49.902805594954017     49.094191476796212     47.298966018398595
