38
lj38_benchmark
H      50.000000000000000     50.000000000000000     50.000000000000000
H      50.387099349287418     49.546207105546721     49.598325210651176
H      50.041006378781198     49.404266968559369     49.117416190633882
H      50.361864797006263     49.709933039256782     50.349336659283608
H      49.544921271658552     49.872070339553105     49.630801198078956
H      50.865833707448424     50.090618955154895     50.589080699960732
H      50.328338733640507     50.279598116514130     50.645123425020266
H      49.715340108758483     48.733733754632766     48.983554707080486
H      50.614918582600097     48.871234181560816     49.084123568780370
H      50.542228704579969     49.424885469878419     50.766618223154715
H      50.216380149979003     50.530017878988076     50.142100614379842
H      51.357194895979021     49.560592644002924     50.832910080818650
H      51.073666968131043     49.486153790518479     51.493287192469779
H      51.712770716212560     49.252500004953859     51.868209179839567
H      50.513596731466187     49.989487126818041     49.064240401444799
H      49.402565246718261     50.405992967715079     50.338751816286219
H      50.445737622777294     50.704017582969009     49.140853928901194
H      50.229180044804629     51.056237916805976     48.717389155504222
H      50.251772509668129     48.334625764974660     48.783552546842692
H      49.648060650679653     48.704697774690786     48.401177044916189
H      51.085679633175211     48.353660161216638     49.212397628109805
H      50.119790740591014     50.972820807916634     50.733235695012965
H      52.035447969566171     49.445932991564938     52.544360494247442
H      49.788484880537062     51.062171342379301     49.121593275539837
H      50.830984430396803     49.501639057893009     48.633410032155631
H      49.687067993886522     50.471882157500268     49.430166604971589
H      49.945889842516991     50.012413741062154     49.361762028986440
H      50.194957515692806     50.845043431835990     49.739232906742885
H      51.447324182536669     48.357760112539147     49.608859445527393
H      49.731940206810243     50.987943820130745     51.320077543448797
H      50.855250722201845     48.983989115502133     50.171223979441841
H      50.895168289654457     51.017725387258771     50.669982790916478
H      49.730778022683594     48.793650696916330     47.878133866086017
H      51.979114530381231     49.741588277751738     53.141518676877773
H      51.769594436178096     48.834840689219845     49.597929982051873
H      52.331140763793051     48.996050708316652     51.801469335747647
H      51.138034886727169     50.604248388889829     49.241265926933849
H      50.453011154344892     48.645632122064249     49.736394651146718
