38
lj38_benchmark
H      50.000000000000000     50.000000000000000     50.000000000000000
H      50.026237814454149     50.518737846532581     50.373608666949934
H      50.372378312580913     51.208400689367693     50.158335113627203
H      50.365678217002525     51.114370257572347     49.668253378068073
H      49.614844125921969     50.055201188155188     50.754449548799698
H      49.526842662064304     50.993260822113356     50.207409810820998
H      50.003576925397496     50.101190453510029     49.301831821770662
H      50.100536771827862     51.581791102248438     49.476543888016792
H      50.187160523146325     51.717170084859397     48.926924083765108
H      50.927772232810199     50.687948459836768     49.859519224764298
H      50.365163895348061     49.393426927753886     50.052413246185750
H      49.641406551798518     49.689927824877174     49.131717964608463
H      50.150131835632564     51.071594991465531     49.145146818802218
H      50.136969674967375     51.918497230024506     48.230468610176580
H      49.214703250708055     51.499751217072649     49.870470181666953
H      51.053101408522508     50.127797469900592     50.406918006761650
H      49.178441820973610     51.969338570121366     49.353384499591293
H      48.874136816658094     49.573495299373526     49.144741435752039
H      50.259489017689617     50.912169130789209     50.566834978666634
H      51.071999541630269     51.516929644648762     50.004062232004316
H      51.084287483428952     50.743005824304930     50.396451873906997
H      51.068304270829756     49.821717881093235     49.703310129365590
H      51.191882202725758     50.178725365803672     49.049040865102270
H      49.824398912192898     50.941262569408678     49.498506349963556
H      50.689097294156092     50.660911714858578     49.033140658242061
H      48.749490320622108     50.017057149489801     48.711263460277436
H      51.304973564010119     52.151087439391887     50.054085356895008
H      50.028703981704112     51.798071482584092     50.319623227749354
H      51.425130969660366     49.736972863616295     50.066479145565772
H      50.644308837355169     50.290978385909874     50.978131998823130
H      51.016563373657860     49.709624131848898     51.335527627506977
H      49.659729139420875     52.308442926236857     50.259709025777703
H      49.750453450184018     49.012974102615239     48.901290796159074
H      51.084789013576810     49.269790927259322     49.473988072762957
H      49.300809240651304     49.822574777455422     51.282829615579566
H      49.638830238824568     51.644132161821915     50.812024016743003
H      51.468682361522767     50.205651526125109     50.682984135413122
H      51.073212962869633     52.278990407684020     50.703036780338572
