38
lj38_benchmark
H      50.000000000000000     50.000000000000000     50.000000000000000
H      49.521073524991309     49.822872281817354     49.963103459786495
H      49.864575487032624     50.146694347442356     49.340934341350312
H      49.693107582365506     50.391586799760248     50.084563863519492
H      49.219836812769366     49.320214549381994     50.211787139633074
H      49.562270204880349     49.475107451940922     49.341621294439790
H      50.394961388825045     49.937260097653947     49.705212935410692
H      50.625054500980355     49.630970840402611     50.181492966521340
H      49.628738904979912     48.909765014536354     49.334302159248580
H      49.188876875864587     49.091608110110663     48.886888396912305
H      49.303623921606359     50.860776643886240     49.678807934084169
H      50.224830261804506     50.568667487562067     50.237201136697230
H      51.136750919618329     49.904176930633923     50.345646112503687
H      49.765452347350617     50.749366324664777     48.821992476305638
H      50.598299064891066     50.363768535471657     49.387579746230742
H      48.887140655617074     48.950898113101509     50.747699307409391
H      49.984771639247796     50.309646075712372     50.823117620251018
H      49.957338344451685     50.920123468136715     51.324643184842202
H      49.663373381741742     51.150710033816772     49.423873296193591
H      49.305780630247298     48.548994747360297     48.480148991754447
H      49.206113413272405     50.440387886658520     50.616910610884872
H      49.734621109822285     49.734487284624755     48.740916818930749
H      48.939581772243912     48.957645268448424     49.907131399155709
H      48.492710143558050     49.405768460018805     49.966098357379678
H      51.277959277703687     50.600521857554646     50.433336741172937
H      50.218542903213461     49.603042454005809     51.128140827296214
H      49.620848433306698     48.344021786001996     47.861398675731934
H      49.547148798181588     47.860819782060041     48.251548675787575
H      49.717764498384035     49.607849523289246     51.172295262375350
H      48.889095804699402     50.103127749292241     49.831521212790960
H      48.766785891309539     48.811680817052462     48.395180127230070
H      49.103055149543131     50.753500861028058     50.990811848881158
H      48.544409576700083     48.541260479936064     49.968264943911279
H      50.099449397270178     49.069003499728701     49.886559303492390
H      48.825331498286339     51.333816860347923     51.061344682080907
H      49.414819647051971     50.193908241025703     49.060104309345149
H      48.655236544510146     48.673328488599815     49.294668353560226
H      50.984987960037152     51.102112971314263     50.589883730369330
