38
lj38_benchmark
H      50.000000000000000     50.000000000000000     50.000000000000000
H      49.932895138362298     50.367411421412960     49.324583868054475
H      49.498079364586182     50.569516248071068     48.925786702172374
H      50.185119406278638     50.771315955579603     49.055951289854349
H      49.550298956151181     50.320138367573264     48.412752704364074
H      49.384058102985080     49.573678279275498     49.927536908675386
H      49.530255962688180     51.297202281710476     48.973353506678514
H      49.686032585866158     49.433632351376708     50.342466888017015
H      49.122103476474678     49.377245542973206     50.473292473930663
H      49.300297121947054     50.057577116142191     47.711300992133566
H      49.030564614798706     49.222078061803494     51.114752490489792
H      50.216574999260430     49.644665978553135     49.384798601581288
H      50.875058224754206     50.709737285536860     48.837524114039326
H      50.593570415546608     51.338096921369484     48.859185822422553
H      49.522492062706441     51.582167952895595     49.443536178254220
H      50.142032222909982     50.159504750888459     50.761084956337285
H      49.264621236835133     49.762506383151916     49.375560403952583
H      49.010079681981530     49.893428106872946     48.888867385988284
H      49.520418920462937     50.598074152136782     50.752529693702655
H      49.327961935699328     50.870320153484663     51.394013137475298
H      49.496008261356408     49.772043203715675     48.373647088652845
H      49.323004296494858     48.596380030249762     51.525634747551692
H      49.050662699583853     48.852138803459553     52.027578614543003
H      48.409338795326711     49.068593038849571     52.271473202826641
H      48.322371536175531     49.443594022968050     50.999296621216139
H      49.254573657895016     50.731140656243575     50.207439281520124
H      48.774481765061594     50.221217006685173     47.648005869742917
H      48.215536064520492     50.259400812703326     47.746174089263413
H      49.636932483425475     48.876824814689336     50.795114139235807
H      49.347198319625512     49.581122781023723     51.392667985604078
H      49.726492406596385     49.020018459122682     49.460937313335194
H      50.714815329679908     50.091910951772086     49.134707703163834
H      50.993093558510040     51.367986948320436     49.467850476825447
H      49.390900223244124     50.554563278767908     52.091329464713269
H      50.639537573992733     50.174701175168565     49.740879751662803
H      49.978329424753696     51.805135888200837     49.198807217683992
H      47.531820371036005     49.976238621511278     47.843868951183588
H      48.687497533096050     50.605738728398883     50.158636143113618
