38
lj38_benchmark
H      50.000000000000000     50.000000000000000     50.000000000000000
H      50.024084631260557     49.867927438413105     50.514624441736046
H      50.739326027151655     49.619712424254033     50.317833761102897
H      50.005383870749924     50.160554213803785     51.114809955424022
H      50.191351768536315     50.637668248818464     51.543896813879627
H      51.275693946590316     50.096946292867401     50.200927981649464
H      51.412656336382810     49.853089751572696     50.683730905012048
H      51.178543725186024     49.596827554276501     49.860674752842172
H      50.369336042149925     51.040170019316044     51.034878818197747
H      50.644869464718411     50.225701700137328     50.489790881470483
H      50.974921020572296     50.168472544502301     49.777973725972160
H      51.465290171653805     50.377030562457335     49.813744370225656
H      52.042136598622200     49.478877151866712     50.860860261857681
H      49.350546283021551     49.974149921808348     50.528785679975030
H      50.422093862078725     51.000820010638904     52.085945335311422
H      51.133290972900625     51.113410307951177     51.893309591028064
H      50.031891928859586     50.835781932395697     52.561035902773327
H      50.084954400760324     51.555921907468189     51.540870001445860
H      51.376049820035377     51.559757248219590     51.421998274374779
H      49.858759132325922     50.573734785084049     50.576067379556306
H      49.892042731474724     51.448541734541180     53.052997103864314
H      49.474779478292547     50.540780611730732     52.505812598878961
H      50.303237631767253     49.176918968182200     50.091282908065985
H      49.245893959211543     51.291819635795612     53.272795774140647
H      49.417637436394017     51.272676969529790     52.311533080691142
H      52.006287793660242     49.531693531712413     51.363976218175978
H      50.755016419584003     50.277840195621437     51.129014874650821
H      48.636571825992618     51.815270280981856     53.327970855199048
H      51.856881470253441     49.308047301330959     49.836031060035069
H      51.890503171090188     51.889097278779602     51.570925792317297
H      49.257094742551303     49.792075142419222     49.882923132420231
H      51.661485404109456     51.205117138802315     52.021779141104005
H      50.697927573130627     49.149889581574520     50.843781846521537
H      49.566896460632286     49.888483059044688     51.082611243645275
H      49.304297016039179     50.995925568195133     50.904775170267776
H      50.723240600583793     48.688723312617192     49.678909962604664
H      51.549169875187701     48.911028171261385     51.514675610598822
H      49.119143528353348     50.417597243633743     50.138130810481343
