38
lj38_benchmark
H      50.000000000000000     50.000000000000000     50.000000000000000
H      49.895530024601911     50.219297366034787     49.542183487903920
H      49.949737824736935     50.888705564700501     49.919452958816464
H      49.805160324589274     51.578540591410366     49.947536010552895
H      49.198583896559690     51.774827992984193     49.784280487635840
H      49.465058786238842     51.343059258621516     49.258008506263899
H      50.075642108850253     52.102527216989145     49.766257407199824
H      49.259767947030653     51.133912594928091     50.224458444538968
H      49.534352937942721     50.022389322227170     50.431259152641736
H      49.224204143458074     51.444631951603242     48.805910696196754
H      49.411090379228185     51.054538895489436     48.257357952192216
H      49.173369056670410     50.653747370815154     49.424965680361701
H      48.620044610432679     50.180883461434547     49.141277237420162
H      49.110687347568117     51.671146455277636     48.093237426141826
H      50.398589777274864     51.215293078171115     49.402576420992531
H      49.486109022421807     49.822956640519152     50.968631965693604
H      48.840685333042664     50.886076739206622     48.796175835026112
H      48.786580218843234     51.543640728494346     47.562570279242813
H      48.663877317955382     52.240912917148975     49.571217632428372
H      49.670421575349842     52.684213969393689     49.395589098473415
H      48.711887876872929     51.085728465402632     47.082519164701424
H      48.964280135936413     51.407914271532483     50.886105714833008
H      49.454200329553522     49.285623205488221     50.809239651802848
H      48.948487179086655     49.565667254142241     49.524957888889411
H      48.254184185145512     51.991683205977189     47.291486227142087
H      48.343217848819407     51.811064136450646     50.052356082304364
H      48.830198398225889     50.820064514335037     50.752737826255860
H      49.680252038320326     49.593141455025801     49.932123147619826
H      48.030102799498771     51.852758700411322     46.805329736737264
H      48.460008922704972     48.946302589717099     49.364532188764080
H      47.980887634052785     49.017783372006051     48.849976910985653
H      49.908579145777210     50.643115019271853     48.117704190001390
H      48.443778032083571     49.891982906297635     49.641307963391107
H      50.885379401421162     51.665423741659858     49.137933913275134
H      48.404459463579002     50.668694478827163     51.307125889837792
H      48.422856626260661     48.744304142153730     48.647647017214688
H      47.345803890874294     52.088417873784138     46.588176330823231
H      50.675319691929836     52.337928866451399     49.089049752289498
