38
lj38_benchmark
H      50.000000000000000     50.000000000000000     50.000000000000000
H      49.687142506362065     49.489753253294644     49.479057686733810
H      49.836129360678434     50.706705034106726     49.854968630689925
H      49.196300285317108     50.634293199178536     49.856454916401930
H      50.543606039083741     50.606263583913332     49.628482589338041
H      49.737418570347344     50.298172090416166     49.426922899554299
H      48.958964659487492     50.187719872393998     49.333002544345050
H      50.245684996183748     49.674157194356191     50.526396413496869
H      50.658648288358890     50.163993160377927     49.006349349944365
H      49.829392527048945     49.352126935853988     50.157217092660687
H      48.742307724624716     50.464371298501028     50.318194574091876
H      50.938700182390491     50.997955131338273     50.185467069310562
H      49.649649392190724     49.551492498142657     50.686197712368767
H      50.424525820701383     49.592408353297486     49.852736772854989
H      50.430337376669947     50.284933061976766     48.537569581143941
H      48.533377476442219     50.994267539274688     50.157432034122465
H      50.229149547020178     50.378789365718767     50.848554085743451
H      49.053895151777489     51.532370355006250     50.326647501038238
H      48.250121026069742     50.185687535677410     50.275345437249918
H      47.739570159957935     49.863958624153767     49.901337075394707
H      49.035479278862141     49.460955611669348     49.236274203662326
H      49.643139568433654     51.280648936324901     49.999098795156172
H      51.602404270935679     51.153841651550074     49.812424423069352
H      50.434354514983170     50.006361984933150     51.172570629964426
H      50.614035381425708     49.610988319720121     48.332595975982663
H      47.265116563203421     49.509728409752221     50.078051147594913
H      50.438125832028980     48.854021570372801     49.723445330901747
H      48.345122999864316     51.057873228178508     49.640710810314793
H      48.805013329049217     49.540556341712467     49.700290562823945
H      49.599714664764591     50.228316415471880     51.152380492500576
H      50.263913963565905     49.237204749870045     48.200203891558765
H      50.337635173130231     49.743344305988316     47.769157616653061
H      50.622161211494927     48.293326918876581     50.263441227436871
H      49.645079293336096     50.853502644727975     51.423046631360030
H      48.546320056489307     50.350786371151329     48.995848109152824
H      51.167073348480081     50.110404613669765     48.602394207829271
H      50.769652493554887     48.369997974576236     50.757386754057045
H      48.573282028856809     51.682966997305627     49.192994657618229
