38
lj38_benchmark
H      50.000000000000000     50.000000000000000     50.000000000000000
H      49.372599992885149     49.872980117256198     49.620184261804113
H      50.045773152740793     49.988245714312860     49.441235587473884
H      50.800484289167137     49.907077305396889     49.325027795155577
H      49.379881331183412     50.125124963303207     50.315575947753096
H      50.503469530067107     50.172832558008842     50.294540633370843
H      50.159690552159276     50.403711230690661     49.186718185730655
H      50.675482661197570     49.571940308978171     50.507239912645474
H      50.105391038797691     49.475984531398666     49.218974440408338
H      51.036579908743775     49.483125784748957     49.538258040367815
H      49.164482584236872     49.670048614047815     50.769296595281801
H      50.643000721062229     49.046695163806305     50.009900296475656
H      50.184670738418212     50.898596162426010     49.156830112465371
H      48.951280078693991     50.222941256571829     49.385973187312054
H      48.725784692310711     50.068787205491681     50.930287382061401
H      48.814407919453281     49.660635075993305     49.961760628304781
H      51.542670235077800     49.772126752463151     50.024843824600758
H      51.420392205213290     50.378395430911134     50.473899458511625
H      49.300117950230906     50.463622959552531     51.061519831798336
H      49.374418798032941     50.943923809707876     50.904537374088648
H      49.809816463049366     50.737704386145218     49.739569237674338
H      48.947806514456680     50.537089777868246     51.510002018147233
H      50.839231278484533     50.219865095767503     48.715573859960443
H      48.580920049082913     50.751940855779253     50.762251710586504
H      48.200933437038564     49.938945791136540     49.964262020300822
H      49.036917942359111     49.091061417115988     50.131878268633628
H      49.732977656977127     49.164434026337446     50.633189573431629
H      48.143295962200504     50.081739217040763     50.496597425448051
H      50.062399027258991     48.747542315067754     51.131639930571133
H      48.176650294463208     50.108328229682193     51.224033852961888
H      51.062837834947544     50.062683053231154     49.784587208994992
H      49.995062437551979     49.134629087064901     49.783680365223418
H      48.639852902847927     49.197851821325699     50.968065443760040
H      49.133782082559833     50.894591866152915     51.890968406737016
H      47.908049199779526     49.960773531461413     51.961932052566709
H      47.777483400451871     49.677895960912828     51.565841932281046
H      47.776678068291375     50.468476448860862     51.107733337252050
H      50.232790090898057     50.455717897945696     48.636548838027899
