38
lj38_benchmark
H      50.000000000000000     50.000000000000000     50.000000000000000
H      50.039354284541744     50.278902169872303     50.608739156268513
H      50.002817122366928     49.313527939360682     50.149930814840019
H      50.254715316637238     50.243126081122028     49.311528768331371
H      50.167064534024746     48.631715113243324     50.437621503738839
H      49.886096992021024     48.771018849627957     49.608924993176707
H      50.078217419017250     48.961470015540826     51.045057846801335
H      49.586663855980312     50.658311858052009     50.539870675367752
H      49.602273529522797     49.753031159135247     50.611690881603479
H      50.473885989414136     50.300902351352413     49.855324397070071
H      50.197166956081411     49.117351834259807     51.826334025451928
H      50.674231585754910     49.277228133479163     50.862756278534192
H      50.016426327638989     49.534944367975939     51.017678991678721
H      49.485160657872335     49.126519890823538     49.154594546886720
H      50.227408239519704     49.697570807963537     50.564432967306480
H      49.184946037515097     49.224759266889556     48.688332309362998
H      50.407770983905429     48.676825731148213     49.517875399208329
H      48.926348573488937     49.683921987282616     48.317449138775373
H      50.231705682319003     48.461108162203658     51.429094744264383
H      50.461211093125918     49.882404061866779     48.781342567977262
H      50.569163332874531     50.174605995930101     51.091666280007445
H      50.345013636436050     48.773590355687155     52.278807937851994
H      50.583857349506616     48.165722207430242     52.061026546287941
H      49.126334078104975     48.910312033219093     49.677521641745855
H      48.765182990602781     48.991289850630089     48.301636389966177
H      48.313773870720304     49.032331534128183     47.997183607119545
H      50.951779661456655     48.543566756100589     49.667505127564262
H      50.369081691135790     51.002074626869629     49.510773485922655
H      49.910442526190650     49.315835824689493     48.871971125155746
H      49.339536938838222     48.857704745805002     48.101280657905555
H      50.536523282088154     51.728572127960803     49.576522220980891
H      49.725685836902763     49.673747464929633     51.572480660382716
H      50.006233344047402     48.022701894044538     51.354925003871486
H      47.672856777290413     49.235237055021038     48.090769886524988
H      51.067537358614480     50.579355182802644     51.280936438406499
H      50.084444971850807     51.585000301349091     50.116093701341931
H      50.005105698148412     49.512776226934740     49.496193901440812
H      49.053899117279094     49.930947998042448     50.650433072827852
