38
lj38_benchmark
H      50.000000000000000     50.000000000000000     50.000000000000000
H      50.764963932774720     49.944287496499122     50.217647275245888
H      49.388143435866589     50.112028140863735     49.701678148026261
H      50.470001026434097     50.216754492158401     49.410505797227430
H      50.232221126976718     50.084806396161987     50.511991863376068
H      51.390631813243168     50.359203223184295     50.038341077771364
H      48.784514574349537     49.909201520838643     49.993298062729650
H      52.112385471082234     50.504878681253444     49.719597912521309
H      49.624664679811445     50.058915663377014     50.644806459737545
H      50.791455223693738     50.037286815462735     48.939755632076235
H      50.884891363597305     50.174775184340142     50.837920009241223
H      49.722420985857774     50.635781296182586     51.197399993639571
H      50.473170473897738     49.950077284661326     51.306444379691783
H      51.740176119370638     50.892556680242080     50.005000469454963
H      50.004580749310520     50.111949981387681     51.037190736336917
H      49.893972534827000     51.151276651723030     51.459122706823898
H      51.276194280343859     49.534535708181636     50.374396595571717
H      49.248301179230843     50.779481056596801     49.550564597873993
H      51.013229638337279     50.310037833000692     51.452272991404669
H      52.348503421694382     50.960485937612937     50.365410492716634
H      51.806360371255934     50.035383633885459     49.404566198519198
H      49.579497743290702     51.036731427280451     49.193492926116718
H      48.369155021327266     50.041375301798155     49.340399060106407
H      49.994316408166497     50.618981512264341     48.643411955914075
H      49.320552025970045     51.342102300331867     48.583001319447533
H      48.460399763331957     50.356385695097842     50.234725371177632
H      52.417936444533709     50.238013761821435     50.057104398694982
H      50.469588980893015     49.848187374128948     48.533235471167174
H      49.239362095404779     51.925800726754566     48.982849035442101
H      50.008282630956280     50.464094614072650     49.323392209031134
H      48.686366434887674     50.560537797420686     50.704084053770188
H      51.195142001769128     50.983068076950175     51.474919925294600
H      50.407942317901849     51.627007056763944     51.668641052416682
H      50.552825062128221     49.236243884421924     50.265520221499443
H      48.572182057937496     51.386424753338844     48.352779470302757
H      53.170628572340796     50.228384984899336     49.796914867543052
H      48.599936502127235     50.667203563411540     48.004058753670662
H      49.663719227300007     50.059648108650656     48.649872470592207
