38
lj38_benchmark
H      50.000000000000000     50.000000000000000     50.000000000000000
H      49.978841579140621     49.943971113962348     50.643620088088198
H      50.537315154507802     49.714078194342804     50.955550736614235
H      49.822992970190995     49.461990920495765     50.121989145473400
H      49.687252850933142     48.968725778195179     49.931594438561291
H      51.244596306760357     50.026938710816545     51.078338202562541
H      50.861241770216203     49.224015057103543     50.843245521636696
H      50.536247534083522     48.722612330891799     51.180949459530325
H      51.564256408584299     49.374667550738693     50.635816612207620
H      50.080916733416771     48.462826098291991     50.863141659178851
H      50.377822288247756     49.171697899968578     51.691279738880894
H      50.758427592470419     49.490499941177703     50.154408700107084
H      49.374727588313618     48.535695724168725     50.104465242631584
H      49.072324717377271     49.038826748493314     49.423274598537972
H      49.181834749569433     49.505130901215097     49.756293599782779
H      52.179227260279127     49.688778410389858     50.325690329904589
H      49.287495474958625     48.675943558793897     50.874101535504650
H      52.175093449338064     49.743282456191210     49.522534798209179
H      49.061925077478058     48.165595575155507     50.767549806431958
H      49.626318448750048     49.097427766515985     48.989829325740018
H      48.992974932715512     47.992645711311248     49.685871365918125
H      50.405479138878043     47.941024795560750     51.184576461392695
H      50.922413554074353     47.835336240257284     51.783039838868099
H      51.133680121430714     49.928667549929912     51.692202776371523
H      48.874959651878150     48.693546044319554     51.290059936060459
H      48.901163028922554     48.401519542002973     51.761097917984763
H      48.342524572693854     48.548615286915286     51.363322343150280
H      48.449553334824294     48.091483717401466     51.812367758771764
H      52.104229567344156     50.332038612655907     50.009823347950935
H      49.979334426120985     49.996612647041054     49.297386440935945
H      51.701786491049923     50.029326361991700     50.342435605674581
H      50.796641524835067     47.339832983988096     51.933243182635920
H      48.726339033064342     49.277053025042022     51.411467421441827
H      47.943042771006105     49.211764377547141     51.374517633506812
H      48.751628413599320     47.419537399732434     49.959821303298305
H      51.277033472041325     47.205513607474295     52.442462896980118
H      49.710150440146670     50.481944293905791     51.094859330841658
H      51.821413556807045     50.124634760994532     51.189899523770578
