38
lj38_benchmark
H      50.000000000000000     50.000000000000000     50.000000000000000
H      49.817458913889674     50.411339967611852     49.416135272842808
H      49.893455348692108     50.581148348914667     50.522009047183580
H      49.666396654119922     50.657223192847667     51.247935583343406
H      50.212162991375038     50.200877270834482     51.477301968399075
H      49.813666794404881     49.850942656228874     50.930290264504222
H      50.822798243920445     50.277616401715548     51.385138631471328
H      50.332052880936168     49.859854012670986     49.159373263938527
H      50.095312542085026     49.335530916538950     49.396370277215802
H      50.452079392148931     49.724344989916432     50.971059000654805
H      49.402820746648757     49.548142763173345     49.940316715534266
H      50.013860943949823     49.176610457154361     50.904951031332835
H      49.816793563424241     48.841481522993440     51.540202630450317
H      49.043275615484440     49.862191760750513     49.483933937075719
H      49.986823130517834     50.033237551947337     48.751107006530681
H      50.776654849729624     49.256272071660163     49.217168833688426
H      50.908879591953578     50.363307322261193     51.867569019809807
H      49.493178685667971     50.615993459462018     51.781002192228428
H      51.297170660642657     49.722340683173684     49.304622963113665
H      50.070394614882261     49.169417497666501     50.036295792115546
H      48.502018789325831     49.674039457719090     49.833800696277635
H      49.521876857964486     50.824084863517733     49.407649723795537
H      51.765534992911611     49.889880701749981     48.809125087246947
H      48.879194798182837     48.947343497098487     49.848594674383335
H      48.166101081298315     50.205329346312290     50.166803203150621
H      49.983103479937085     49.774426065873541     48.064066192490607
H      49.690942551089748     51.074030895295380     49.959420913345873
H      50.518582476333066     49.913702122719826     49.651024042218161
H      50.120123959352455     50.789839977654658     51.739962218923445
H      50.520009750372999     50.377932699058441     50.438705317536893
H      49.313322009577107     50.034846502853092     52.219112989779774
H      50.730288011176079     49.463275083287002     51.555379928174716
H      48.682493262896052     48.585743045516338     49.423494080246599
H      49.016032390558316     47.980997011616132     49.602440924046014
H      49.537977387101122     50.310565295105349     47.678100427362750
H      50.131242489768269     50.657507297104139     48.319086849545300
H      51.409682777211067     49.329410576321308     48.583007614853223
H      52.533248293993580     49.776034627046570     49.014952188779475
