38
lj38_benchmark
H      50.000000000000000     50.000000000000000     50.000000000000000
H      49.644708162795808     49.409884028641898     50.266127801282337
H      49.277825433056023     50.175497573246886     50.259202643807697
H      49.306162684248925     48.993236789115798     50.396919918977197
H      50.062143077618458     49.579422425865197     49.622828597322808
H      48.719678901784135     49.262564063335766     50.660949977271969
H      49.838089546664641     50.432163796553539     49.437384304240929
H      49.013288121074709     49.059524262018286     51.323765341621431
H      50.502648769879990     50.219278134526277     50.002746640991901
H      50.089073948849794     50.543034575037296     49.973149111049423
H      49.322098309039362     48.747640739384615     50.841503373482198
H      48.681929854551420     49.138094934765292     50.017117577747435
H      49.113141526726132     49.493752578887268     51.910716525020717
H      49.273956386834158     49.828324478470691     52.406045645418544
H      48.816537231366581     48.623016133366036     50.933080974098530
H      49.790213970032625     49.352882002189098     51.800660769470291
H      50.109325457125749     49.845774222634091     49.104485677015411
H      49.564445204825269     49.788093347948099     48.834401239477053
H      48.593613931619124     49.764520930167265     50.515922558075687
H      48.656227743751685     48.605952854217797     49.713551038897094
H      48.659306752658040     48.699851377785741     50.402878543804398
H      50.562165395952455     50.236287143012106     50.557838123672006
H      50.291469141092541     51.121750900493396     49.952663152730153
H      50.529506399602049     50.857939503445799     49.287591184324299
H      50.287836334865212     49.698829365892848     51.675247800392448
H      50.552541353602251     49.605886142393594     48.762819937040753
H      49.615833950566177     48.135584207820926     50.694623654912910
H      51.014544741700220     50.948883046564681     50.248784351227506
H      49.695922282663282     49.073607981589198     49.231233588420402
H      48.507904380630315     49.880968070816436     52.471389138759903
H      49.468829727106062     50.365188768389714     52.803694015523845
H      49.860763594098621     49.461928677113370     50.718179184083077
H      50.455037070268972     49.346095052464626     48.190652240353231
H      49.027298726857168     49.694910293243510     49.155419411982955
H      48.148146894963524     50.032062628436542     50.754116534147840
H      47.744899701104011     50.328448354761314     50.150818498156760
H      49.561620506043468     49.027690429237971     52.265856096831392
H      50.721249431971493     51.354151800908582     50.068315262783209
