38
lj38_benchmark
H      50.000000000000000     50.000000000000000     50.000000000000000
H      49.522024765539577     50.412656167730987     50.326744029945800
H      48.933066776081958     50.230681288339888     50.599847685520245
H      48.806141458169407     50.165595947326757     50.097591891629172
H      49.203726755913024     51.038957561059696     50.043313525759672
H      48.278893275548448     50.169592037502738     50.758820330367143
H      49.166699131838669     50.978004207594836     49.419904867239808
H      48.173890607233979     50.704048274553678     51.076193909295434
H      49.979957716829134     50.518758654804977     49.811167330962334
H      50.692498753822932     50.285532860217963     49.597430175200614
H      50.798941587353077     51.064094891008658     49.543641530564074
H      51.189640509942777     51.265592071700382     50.005988578088662
H      49.401331540672651     50.307591192102649     50.800634697892860
H      47.914266115627719     49.834670815801843     51.078245297661717
H      48.875126839273072     50.050389272251223     51.084992213094914
H      50.362163815713892     49.578315962710313     49.700084288322422
H      51.581922820222012     50.983004142365928     50.625242715915050
H      50.131952165961906     50.664498730567388     50.445028959808504
H      50.143634361298716     50.301719160349457     49.161895388144927
H      48.861684417593750     49.478500616371470     50.793472591176226
H      50.392001035033275     51.588122668330577     49.112089899563081
H      51.009917735619936     50.743570109291724     50.571653967487180
H      51.356289814205617     51.597120968101606     50.372888340567606
H      48.075172324876455     49.253975005736194     50.965406265986275
H      47.336707699129967     50.267753944834645     51.061313818638276
H      50.223750905206288     51.872906327346293     48.507114347278048
H      47.851476040347698     49.448785805085308     50.349555541746412
H      50.788392798394007     52.034024274074319     48.175360737941212
H      47.527493984331436     50.226410637517859     50.308953513714158
H      47.824046648682049     49.323606975992007     49.640479468848703
H      47.002710235269710     49.757445687137775     50.486369320308107
H      50.319747249392464     51.449147231834864     47.970187591499268
H      50.633022417723019     51.192054932392331     50.394909471706761
H      49.678999261857335     51.139932650601729     48.836444352960115
H      47.006324326965171     49.561749316228202     49.856242460387570
H      50.289608688020891     52.506316791563833     48.105946862053976
H      48.526487447385762     51.071713879736002     50.101099457697046
H      47.358851319131738     48.976105189286997     49.837269007307171
