38
lj38_benchmark
H      50.000000000000000     50.000000000000000     50.000000000000000
H      50.009841168728634     50.390624633319085     49.373657999750108
H      50.784446361691359     50.002728509091178     49.893447390515455
H      51.218689045111944     50.574026260889475     49.991900423130531
H      50.796657067425727     51.118830523882195     50.365826337054862
H      49.457187338653860     50.208784758454883     49.419113016696272
H      49.151844067178473     49.720971326552451     49.174203196208119
H      50.215653497441913     49.709697846966868     49.285011284619245
H      51.365821620883523     51.423703360540202     50.829008874618580
H      49.421422177769635     49.209202400572806     49.135212350655664
H      50.963271446984443     50.550357200909616     49.478047793082943
H      49.113089657264410     49.750975505517793     48.675548430566266
H      50.932988039382820     50.545997953666046     50.677335263111566
H      51.183920361308175     49.528285542366582     49.585285057839691
H      51.801629131429806     49.628567684004331     49.533392051817735
H      51.577243856332899     49.327421022100779     48.935215899837289
H      51.842010833637310     51.218056044723234     50.648310022281350
H      52.007979114182390     50.796753720420163     51.270904785244873
H      48.921885899900026     48.944403797307920     49.177596664596614
H      51.770681289689904     49.215889175903470     48.364143291633113
H      51.405149772259634     51.328563017975000     50.240045021314970
H      50.060346011206946     49.616927899172154     48.546826210400255
H      51.278615036713909     50.369481789386072     48.920410661077575
H      51.517737481658287     50.898403971600487     51.458064078284615
H      50.580667449850090     50.385385853998308     51.223229897110237
H      52.142062746606335     48.880939199678316     48.598079919673566
H      51.001581253783115     51.038955471934429     51.375127352617270
H      51.071047050915247     49.144393626606217     48.767861842235490
H      50.500704938872346     50.618612877801873     49.650254690175402
H      51.073005013539287     50.894500149691538     48.696069247623541
H      52.202963927947337     51.448645198111358     51.043720796620214
H      52.382027265278836     49.747083618786149     49.610114287228576
H      50.653619616353126     51.270540313177463     51.802474054908295
H      52.346514285595603     51.610851083019519     50.447410536354077
H      51.882078853614296     48.852082285050273     49.255930533052158
H      48.985235288130454     50.733724458032405     49.472783525880125
H      49.577991089635802     50.123513847158200     48.489486044916227
H      48.424557671176871     49.731950975712465     48.470442905772025
