38
lj38_benchmark
H      50.000000000000000     50.000000000000000     50.000000000000000
H      50.358789831566682     50.676647052834795     50.071525771432675
H      50.044874728409454     51.116321512489719     49.853052266451904
H      50.481048277132302     50.352111618343358     49.613032283338853
H      50.438010057216417     50.435503280572995     49.023719028169111
H      49.615513200900828     50.253431984343919     50.254411727677358
H      50.899475340081317     49.967062709867420     49.982049493069844
H      50.476589696941154     49.714163836411792     50.105795922100661
H      51.182025839884176     49.334271422446449     49.833837050387672
H      51.394882328565224     49.960531317248083     50.591151150369470
H      51.740166291096322     50.537513428623214     50.312159399811655
H      49.526814710551854     50.454433493243457     50.705541553516795
H      52.063489672903486     49.578041840501307     50.719376785361760
H      51.183909435582400     50.249183696349462     49.672478156640175
H      50.291049645393016     49.720826432427181     49.017628648413996
H      50.831984631500966     49.281234464107648     50.562257732697837
H      49.345548577234702     50.558405888556621     51.463182101149897
H      51.907750218271964     49.853460983212280     50.274412774946057
H      50.580100244533575     50.194566163801568     50.493910253923261
H      48.907632536055729     50.598600516201621     51.805019267934163
H      50.894084200705905     49.498418660259404     48.802481846120884
H      49.937068503021322     50.250188683764648     51.580038572727510
H      50.960543060886643     49.811897849512000     49.481356965256381
H      49.801776566770052     50.001185055071687     52.077861135246451
H      48.962221682584463     51.085658043881288     51.964905810118118
H      50.512854563524982     49.900259358448920     51.185110401987082
H      52.078430872413918     50.863752352220750     50.742869559401740
H      52.424578434637098     51.264796239739148     50.686006777869750
H      51.778114117798758     49.208737575349431     49.766832559796391
H      49.725554741775966     50.239503066883543     52.802867873247550
H      48.552952614156531     50.875396066964328     51.268538391024116
H      51.524499344978622     49.289714795164109     48.999290933664327
H      50.672289649980385     50.799476699596475     48.647007239837002
H      51.829814696756500     48.692597830320423     50.014945155519499
H      49.896954384115396     49.544586090511750     52.673142637787045
H      50.980395775293317     49.237211904007047     48.221785585516251
H      50.901447580340488     50.709124278646122     47.918286439594368
H      49.856395991063785     50.569292616669642     49.281383080381538
