38
lj38_benchmark
H      50.000000000000000     50.000000000000000     50.000000000000000
H      50.196202180329614     50.095506651564122     49.496156641621141
H      50.043064676751726     50.514170033246721     49.175448510484706
H      49.918489681084942     49.937727067243387     50.496412887653285
H      50.451675114238270     50.899708522808794     49.610097536029201
H      50.808365374046545     50.431952968361180     49.833718512732396
H      49.570150115082157     50.556314351673507     50.719681190453016
H      51.261662283689006     51.081616208822652     49.822659168701520
H      51.693497703916449     50.822117086650138     50.416568043205736
H      51.221964610931472     51.806992161925436     49.983358719318133
H      51.741773947978423     50.839370265349828     49.652754325761514
H      49.267554164896275     49.935761397753254     50.185222289622487
H      49.135619990235377     51.039116483691906     50.395545268090096
H      52.024818147004972     51.828864877610677     49.954187097316215
H      49.216940791994595     50.139569853731999     49.449211156428191
H      52.287853404612846     50.908523319614353     50.361651533264030
H      49.208026978510567     50.688153047761226     51.104754552313437
H      49.190034936840121     49.584290651189505     48.955308490699615
H      50.160104866575900     50.575442616288015     50.099837097128564
H      50.695535519246178     50.002018958837631     49.308689617830964
H      48.837808195934990     50.273467574059758     51.429387906578768
H      48.656248825893044     50.119914904559600     49.401508455011360
H      48.520215998858212     49.442332828407942     49.222839008055075
H      51.402255911973263     50.824691250999720     50.972566928496995
H      51.510498402145032     52.104130675583804     50.511172698066453
H      51.901216810064817     52.662783673981465     50.153346138967258
H      48.970433393659363     49.865675805162027     51.147198902184066
H      49.955085256199418     49.820030360644040     49.106775862471302
H      52.338132591539960     51.773741565889047     50.350338874169040
H      52.210210408974440     50.386792982627547     50.584856029349687
H      49.632454332426249     49.936762354737695     48.641598983755905
H      50.808428116220419     49.801674499461825     50.052903859154924
H      50.848509417038592     52.034351269251438     50.824685923235450
H      51.232985322233674     50.911888850912725     51.715357242850871
H      51.283557070015689     50.140001615327456     49.249934445435159
H      48.655520976847477     51.021577352841078     50.268997478985909
H      50.828754441155375     51.590572585075911     49.411078008440832
H      49.814192166317596     50.129355282310144     51.226260391896304
