38
lj38_benchmark
H      50.000000000000000     50.000000000000000     50.000000000000000
H      49.727595375412385     50.103300610860373     49.435035397419036
H      49.750563302671878     49.626499219873615     48.908141139011121
H      50.277568629528119     50.569088369648398     50.128695758929979
H      49.834973986502490     49.674652159317844     48.180021491574337
H      50.651768792875778     50.957219013420229     49.977884201593241
H      50.401621901080965     49.773324006309345     49.066065534857053
H      49.376716060070081     49.195063816110554     47.839157757884976
H      50.121263303775265     51.286701431541616     49.856940158962161
H      49.935411816709426     49.146379828894112     48.963546233339045
H      50.259185181985345     48.606386300919631     48.684553264549827
H      50.658505287738940     49.811595280692430     49.891205464362805
H      49.834940721215233     50.142140913888220     48.862911822092229
H      51.258352704934850     49.500070066153668     49.926826488817824
H      49.970381168145330     49.123694722977405     47.824031827806010
H      50.592118866770058     49.139246804070609     50.099915381257269
H      51.130776261522193     49.911639452737901     49.406164122257550
H      49.861397652437198     48.870580148240151     48.302760781519581
H      50.417108324038800     50.323802259305282     50.569876275558869
H      49.008822407545921     49.802251477263887     47.744385836822246
H      49.039961055673800     49.250084423189726     48.336541227422437
H      49.549165945637121     50.075571332299077     47.851167998652180
H      50.068941924788980     50.914544679350740     50.592433362345162
H      50.111731385234542     49.434175342934992     49.932130091537509
H      51.103609350762611     49.082118392320226     50.280649430334542
H      49.829104065226652     50.657203694460399     49.100316366455182
H      51.559217792077014     50.171027040271362     49.892946624448442
H      48.529185083541947     48.953124974998005     47.797960311264276
H      50.310792335812259     48.479342229242924     47.610425156017484
H      49.700416869333601     49.133412691485667     50.270198524069947
H      51.592862392919329     49.709297371291804     49.151471322332846
H      49.191820438871268     50.873431827992086     49.060574808706832
H      49.012899350179289     48.796809233752150     50.498912985759773
H      50.626270625834742     51.549334672694151     49.477052867260113
H      48.718615825180159     48.406784703033637     47.314722225401262
H      50.277537777016718     48.680667922167423     49.814799484763370
H      49.008411070326602     47.766876175379622     47.488353715169026
H      48.734039435698662     47.632465876550235     47.088520891236769
