38
lj38_benchmark
H      50.000000000000000     50.000000000000000     50.000000000000000
H      50.034127143291641     49.416987645932416     49.740818150481850
H      50.045402412023108     49.066531720309897     49.230766393630425
H      50.043196121855452     50.327507439300931     49.384023663611536
H      50.132135831439477     50.912186992974782     49.256118766289759
H      50.772847323681809     51.138066400264933     49.593894564070695
H      50.175690767679164     50.036299660546206     50.580660601425215
H      50.934668786989221     50.814579673757237     50.068647152574719
H      51.230917256059683     50.606582940588140     50.676966073341262
H      51.058567458133886     51.777379761433295     49.348464410269976
H      50.689533433149805     50.563115681111782     48.997717279026524
H      50.356073387104111     50.640371037882744     51.035587590273408
H      51.677436620716847     51.581942991384970     49.474441448975064
H      50.490740745496296     49.955349542212772     49.108436324235321
H      51.550294639844822     52.189800139074357     49.739562167050039
H      50.956796191718176     50.287574900428332     50.132702086214579
H      50.812801562371078     51.739321668461898     49.798101139093880
H      50.268374768976408     48.541950234325718     49.452245448422950
H      51.579332910313241     51.694605942956883     50.258915335577043
H      50.576206112746249     50.986387121263768     48.454211390827716
H      50.195867286192176     51.757007136010678     49.443162055094454
H      50.995345291917161     52.763766975571201     49.751033277410180
H      50.586831198175005     52.311482431607850     50.122921022811944
H      52.136497752224983     52.166915050064745     49.565677247052399
H      50.842481891741471     51.284754338986986     47.885337159792215
H      50.262789815814806     49.492221473300631     50.671766928056805
H      52.294354451366566     51.389708334862128     49.398595292739557
H      51.356016331796702     51.080940305457993     48.082350739149646
H      51.888775799116495     52.721571404589980     50.212860776393555
H      52.723551636685542     52.027964646755159     49.040626463738967
H      50.191092069404661     50.798859432673453     50.043093114932752
H      49.630231288209423     50.883432206001920     50.519019930931080
H      50.392464842075960     51.701378254031951     50.253801509336562
H      50.607055410442477     53.018630112475229     50.453840473057404
H      50.566497397057546     48.924886451310499     50.800595675006285
H      50.678242185786317     48.559923535329141     51.483997355279207
H      52.399161220784805     52.721370071120347     50.637706717814567
H      50.376314388220365     51.338787905467967     47.351230773315251
