38
lj38_benchmark
H      50.000000000000000     50.000000000000000     50.000000000000000
H      50.372960248471180     50.218398140431745     49.657233958776487
H      50.315007032357606     50.748004788804693     49.970589993513137
H      50.480670876623719     51.075863329580905     49.475467316984485
H      49.802413032380613     49.583332357498740     49.494502385048499
H      49.828792714481253     50.473808303874478     49.926573387264142
H      50.053553710886597     50.314686317536470     48.984820403782820
H      49.173637778937845     49.326869112142560     49.462097809703081
H      50.441366961294101     51.198397228688719     50.605265233128165
H      49.869700015245520     50.537202644305900     48.395067740758435
H      50.602234439790379     49.898556746181569     50.343641854730734
H      49.805955679345622     50.912985490067065     47.704947767546976
H      49.924839600299897     51.167959322003163     50.740202926468946
H      49.931402828468585     51.086611061081562     48.446013040696329
H      48.829275941834560     48.709925030753624     49.733491897994874
H      48.900136393650001     48.508669695406361     49.094580607662465
H      50.273319929922089     49.106672145158633     49.625939323247849
H      50.135478742061615     49.692860159930071     48.796217061222904
H      50.672018607966571     51.798058342624721     50.388161156258754
H      50.241456465312567     50.838248285440329     47.234728953616340
H      48.279008987306696     48.902308404371048     50.067954603291021
H      50.678713948916183     50.980213098876909     48.692852591932294
H      48.814444462776478     48.937982683122385     48.433586972111605
H      50.699106607637326     52.541894759992758     50.102066505611631
H      49.359598730538877     48.976288042754959     50.072454912528798
H      50.654676339454575     53.193827182997708     49.912057090244915
H      51.026618174928785     51.545904032103515     48.553969734368337
H      49.634606253043458     51.625635245198602     48.757981695849750
H      50.827760803219725     49.175742209204067     49.519302955629129
H      47.807380866545373     48.479435713498006     50.313801906101752
H      49.678762918548948     51.079625767934559     50.267767032897481
H      50.238367976258047     49.076931280153133     48.797475475332000
H      51.396601255585388     51.727069259577569     49.246418157741523
H      47.463048944607166     48.110758569594275     50.847139343392506
H      50.485985135669061     50.294730420990632     50.929318274088153
H      49.032250674496609     51.879509580772101     48.286909922896683
H      48.662993837160506     52.098402798707497     48.911855657516817
H      48.880669347630644     47.915311873542556     49.397131938846371
