38
lj38_benchmark
H      50.000000000000000     50.000000000000000     50.000000000000000
H      49.919466142343502     49.709559057721712     50.675833677013451
H      50.255471140287369     50.376090808964555     49.583254590278543
H      50.349846718939226     49.336328075542319     50.695678262238808
H      50.300587212753271     50.152107286520256     50.727124522257483
H      50.993006567650184     49.229000500531860     50.750115801221384
H      49.871788946798020     49.191138915946397     50.176479884836489
H      50.399545937359711     49.650521443717267     50.189902834379282
H      49.829986285104304     48.651078001258291     50.610410563884855
H      49.795815317306236     48.676951657099210     51.141829452854537
H      50.128180883790478     50.846333002680126     48.952415278967322
H      50.112275498068804     50.667527688844793     50.986198189495354
H      50.334363258520057     48.919558276982642     49.906338206442925
H      50.229407207458017     50.335137638160710     51.512440248029158
H      50.880957741068045     50.303301037922488     51.331670233336219
H      50.791682880674294     50.204568113158068     50.421218049660752
H      50.645990379393545     49.083054830708868     50.385899013285638
H      50.189169935851680     48.139115475831908     51.074553921775646
H      51.233664448444436     50.824870625179734     50.299733917060372
H      49.626524381648096     49.678315431452056     50.141014316790120
H      50.623201337424341     48.259184598925721     50.604212363880450
H      51.472385179387778     50.427077236306836     50.797601724758110
H      49.661945551444092     50.489402884177260     50.805086787529632
H      49.575350235667216     48.837517227611912     51.858573959368307
H      49.424143525343155     50.557624129339622     49.208286838129844
H      48.997485556892109     50.808924018774299     49.823238921438950
H      48.837036378821146     50.288510648309561     49.101735198355001
H      50.018902218642793     51.557407336904483     48.867037765638422
H      49.992372313315585     50.531126229026327     48.396818836123174
H      51.075008962537709     50.600351554927457     52.054479164461142
H      50.202638332299721     49.696135439321587     51.813439248549173
H      49.051044765762747     49.223212265503008     52.252163996859203
H      49.318260200983680     49.083865976371378     52.953379318739330
H      50.708055203519706     51.111141323993422     52.396239815366570
H      51.291116758973530     51.291861946339758     51.940479984801726
H      49.120534742879549     50.675598815019981     51.324795425914289
H      50.433881638937926     48.856987980949683     49.323999795131954
H      49.959497187971351     49.114570194327158     52.604821487362116
