38
lj38_benchmark
H      50.000000000000000     50.000000000000000     50.000000000000000
H      49.804769391253480     50.408955345065614     49.489145977929510
H      49.377009350521597     49.602718574584969     49.938598787528861
H      50.197895561882845     50.157076423902950     49.277726425081383
H      49.011619376638855     49.450685799867983     49.546628897723330
H      49.342904166472479     49.815045933831250     49.400859427097089
H      49.089290554063069     48.922604233406275     49.626495906523658
H      49.921937674287442     49.449554067029176     50.546686124083394
H      50.247811551888397     49.749505891529957     48.983826488980782
H      49.865771839762907     48.964832503931603     51.087445645563150
H      49.598028965397994     51.054225523570395     49.188528333481585
H      50.040422448584927     50.877209662127598     49.408873669924091
H      48.744508180106813     48.597583220499033     48.974920634890353
H      49.886423880233743     49.731849148106065     49.385766807317871
H      49.241173176675829     48.404032358012117     49.069840301601765
H      50.298768307710937     49.044055663054792     50.148572174414262
H      50.451343606202130     49.757813314968267     50.109575105255431
H      49.869934085223299     49.482800327838063     51.539852786414251
H      48.873970686368004     48.305814159451998     48.518400799691385
H      50.374142512600514     50.972984214281837     49.767544630690814
H      49.444236297533038     48.644656157804434     50.558683227119843
H      49.907582668519581     50.851014196801827     50.034249493386163
H      49.960682389762731     48.262311962308850     50.251607549679427
H      48.419600430564643     49.681653752413723     49.445063414887386
H      48.863406632753438     47.573430728699499     48.247264913688753
H      50.506927848879059     49.507109508616253     49.408131633134396
H      51.227086129780723     49.844858909304051     49.478894403891090
H      48.453721745560067     48.576097418405965     48.207373421928288
H      50.520361224035369     49.195138050345228     48.589890555126424
H      50.752677467191539     49.720952599486850     48.655565728602994
H      49.798225405312373     48.232799646294822     50.867491390781822
H      49.735145581134603     48.719238988329955     49.584022525258021
H      48.896561874062449     50.051483969870254     50.275243225820851
H      49.691362473716758     51.208188318980241     48.567912142586621
H      51.900721349964513     49.662872754260071     49.603010428271688
H      51.009209018965429     49.000534762483632     49.428505138845978
H      49.963276178788746     47.802357522280417     49.942468052301948
H      49.704518052555400     48.518364019041847     51.490744738426535
