38
lj38_benchmark
H      50.000000000000000     50.000000000000000     50.000000000000000
H      49.413610072230412     49.637468432975247     49.766800341979980
H      49.881292508154424     49.494117716981464     50.194704091100050
H      49.312499800303200     48.895114273266913     49.682254557800427
H      50.256209888747826     50.278637804620857     49.617961484401974
H      50.518897823648949     49.911565722706619     50.259045406768621
H      50.229458683856777     49.458374912084253     50.610412167989409
H      49.789525319820562     49.126456449860370     49.347672401264234
H      49.827247421765563     48.581310439002316     49.301722522601139
H      49.581098997083210     49.811104511378353     49.305604535019278
H      49.403146304357136     50.199291902433949     50.386240191702619
H      49.493273751618794     48.202036840267120     48.942261893836076
H      49.727115179063823     50.137735253775908     50.916895784346615
H      49.097149126531505     47.755433661766553     48.806672777923310
H      48.720845016957149     50.280070830469384     50.184186757421273
H      49.996806624070857     48.145729402339960     48.859354309126005
H      49.802995486411469     50.544867283270939     50.146500081801790
H      49.865212243349596     50.971875666136192     50.799708407595901
H      49.381608691907928     50.512204954885370     50.770881135182215
H      50.501171624531175     47.566591037061450     48.717969441855601
H      49.413469376100714     50.777196559061231     51.519321673439933
H      50.075833305940435     48.641155499092761     49.977183849619280
H      50.941130962167179     48.125537785352748     48.612222890253221
H      49.231858688396400     51.040119031275161     50.275689386149708
H      49.641154497260899     48.762693385072154     50.451510019465900
H      49.569801975718583     50.908133232043049     52.215707333737150
H      51.143930457099366     47.125909474763880     48.803376795374604
H      50.026474661746981     51.470904939550238     50.959580915895856
H      48.592098544529456     49.119667521238270     49.669383378248241
H      49.071646331596213     49.539529672373391     50.526200433659938
H      49.737775939993440     51.569961606794308     52.564466989767865
H      50.288289433452306     49.328533174997695     49.887825350721016
H      49.562310499718862     49.583058397892948     50.632961432243953
H      50.512824917946517     51.430664371966657     52.720778308995605
H      50.187968411670489     49.982845634157385     51.037527638149626
H      49.227193507106414     50.107701990945749     51.193255156636361
H      48.611499503548863     48.454660882153270     50.040370853691982
H      50.680249413492412     48.703336300007329     49.839926163309855
