38
lj38_benchmark
H      50.000000000000000     50.000000000000000     50.000000000000000
H      50.481629799917947     50.527899779867269     49.806288902939933
H      50.327651620326897     49.490230242113391     50.109392183808765
H      49.457860046776872     49.795369485188374     49.927974587093573
H      50.808307211368067     51.073614099878228     49.708254822560434
H      49.891751551009776     49.635674218328191     49.503276990872749
H      48.831937974945859     50.214404446486007     50.116124523249532
H      50.581849226754855     49.460275433214470     50.775384990768174
H      49.882904900210214     49.215626308534077     50.264765152417368
H      50.103597823896806     51.259816491932554     49.805824066157271
H      50.466875275784545     50.558957970718325     50.319495768510201
H      49.987792851072847     49.679623374534906     50.956843822259906
H      48.059017574877366     50.007992146072532     50.051952316280335
H      47.710451805993408     49.464329130482128     49.751651320708305
H      47.900653749065093     48.805925462997891     49.354735443180260
H      49.523167002771686     51.333666294098485     49.820228135154942
H      49.347705993809363     49.372856736368838     49.289323772235896
H      50.503282505946942     51.682916151754242     49.553514031918183
H      50.426093327303278     49.360025118985874     49.582196232046272
H      49.940244273389006     48.810433319413939     49.877439094574989
H      47.871753309771968     50.027724733650999     49.491968379475232
H      49.384926514455643     48.857450501880507     49.617061867697728
H      51.186761445382096     50.629697268970794     49.714322020080523
H      51.305349686490956     51.221055191877845     49.659821689056876
H      48.078137381361678     49.593051900365147     48.845507624311267
H      47.516107203692208     49.689440096567928     48.464402864787544
H      47.938477223488817     48.314515391197794     49.945930536595696
H      48.151228061983808     47.968582530505671     50.378776466038921
H      47.547644878058541     49.197231633941293     48.183847828865503
H      47.947597729685285     48.995344513247190     47.675863666400858
H      48.948697737345341     49.172737081941960     50.214007312334964
H      50.017035322359121     48.561705752853349     50.347405347288131
H      48.567384133834580     49.670875856206194     48.813553884828302
H      49.195529319140810     50.166236872035981     49.632413443453089
H      47.860376500467112     48.094936627815926     49.151514240738678
H      50.820228279407296     51.065383839557924     50.807387246639685
H      51.251460630721297     50.973400787279004     50.424426829198460
H      48.946747535975902     51.659958455530095     50.052727463374403
