38
lj38_benchmark
H      50.000000000000000     50.000000000000000     50.000000000000000
H      50.678227139410843     49.810589046575458     49.960892793616651
H      50.282654515384060     49.774912743444567     49.353360184134559
H      50.861281266985763     50.510977034827661     49.742217323351788
H      49.904570281528436     50.426240731154763     50.325282119989311
H      51.207786275242874     50.101253774512827     49.778066736310869
H      49.551798562455687     50.373877742894280     49.886032741746824
H      50.565350579611668     50.275929594502045     50.438356606769474
H      51.176385315925344     50.329527232044306     49.302739484816691
H      50.615216259400313     50.155497991487330     49.099060137921875
H      50.590600792345597     49.221907292454276     49.858412802232678
H      49.460132810687611     49.868240974677072     50.636679827075106
H      51.181327259166089     50.622463071437522     48.667408482833679
H      50.830751321035635     50.603654902478901     48.179910952543793
H      50.765477777517411     48.771740180349703     50.421557694093167
H      51.603007210207203     50.532129159499689     48.380303670068265
H      50.290076978572550     48.655647407941274     49.876584507922793
H      52.033822462724331     50.218782199744048     48.746306411110488
H      50.316087763008014     48.884405903346995     49.285978163185320
H      52.427353410851651     50.500547115086590     49.064651407740264
H      50.779290306951808     49.922553039352948     48.250157741908339
H      48.859975934263034     50.585567630217348     50.031289822834353
H      52.958588149774677     50.343262618065744     49.520714266097968
H      50.100413189763032     49.685638638586319     48.497784822421892
H      51.159847666746977     50.607084974733397     50.286984431924104
H      51.051304603033657     50.117689170125246     47.704361822573183
H      51.736698534352776     50.532503128856852     50.119035885047332
H      51.183353716777013     48.787556593006798     50.936288683087831
H      49.796618056441993     50.806548184403304     49.729135763035494
H      51.698568068943736     49.292479580095815     50.731501648661997
H      49.786200135964201     49.578419940701089     49.713787936139461
H      53.336009409223145     50.179231011598787     49.162113497519819
H      50.917007842471726     48.354618882376549     51.379499032506644
H      50.962353791504214     49.495262536191753     48.757848644232709
H      50.105432275063094     51.447699677024971     49.790788245069642
H      48.571826151878419     50.742316668972443     50.531199389974176
H      50.312170826631380     50.135366382610968     51.112229888982419
H      51.867184032810229     50.877437101044507     49.573145460810068
