38
lj38_benchmark
H      50.000000000000000     50.000000000000000     50.000000000000000
H      50.422655364377533     50.188865277818842     50.605046832468865
H      49.861882782673995     49.959605615972315     50.623415011363413
H      50.380599506173674     49.466739461305693     50.409374133207109
H      50.829717147705395     50.405284240248427     50.082346998879174
H      49.409988523495791     50.133564685551889     50.796830566050204
H      50.944986443046751     49.192982418042668     50.624134696265777
H      51.239753936963638     50.811678608303417     50.249215097453792
H      49.624350081026058     50.356516939121434     49.523052468617827
H      51.360379179886564     49.175784497281668     50.052494656863999
H      49.502603813876668     50.845469911815016     51.067486576619274
H      50.666652687843481     48.841440068358452     51.013214584373742
H      51.561452345970643     49.406665056210301     50.894818434750981
H      51.621210137619855     48.719320412424054     50.973271722068347
H      50.789202152296738     49.319585617701158     49.780193395468793
H      50.984382749095268     50.346099424932255     51.033729591762238
H      50.090339362087164     51.275462538740719     50.888091825042714
H      51.053524050821487     49.854225522731440     49.360972505710308
H      50.693819556082005     50.779716781338600     51.000614936580462
H      51.760880828185293     49.581231562049183     49.351147422092545
H      50.901786372380855     48.267417468914701     51.108785530666559
H      49.531508519168938     50.173444635793253     51.282851995976458
H      50.364292950570274     49.646644757678921     51.095519983613364
H      51.667130126692911     48.983198778176494     49.423334690531540
H      51.090639205999928     49.806035774199287     48.809612386091146
H      51.563818415377142     49.475802409275715     48.744622520399858
H      50.700784783890924     47.845621491016558     50.796012806626671
H      52.393525631955363     49.222980115811303     49.687399909690399
H      49.308434482352183     51.207551801458777     50.776632297006906
H      53.018810080487988     49.490918473137668     49.848197665005380
H      49.729226135587496     50.987368959149400     49.616653029124784
H      50.910486488209436     48.323664648150384     51.623371724852191
H      49.312530383927530     50.158590550839754     49.946589857930178
H      51.965583589415765     50.163460650446964     48.671465715550745
H      51.762249080000871     48.700099694828538     51.640556761961300
H      49.733032630784002     50.004919249108113     51.929805479531900
H      52.426078776552082     49.985167457953715     48.590425630559984
H      50.048090619700808     50.222511787937229     49.072195592712703
