38
lj38_benchmark
H      50.000000000000000     50.000000000000000     50.000000000000000
H      49.524055453315711     50.136334369705104     49.966537955811063
H      49.136769260376617     49.550257887597013     50.204807129893531
H      49.593006685479018     50.336573149208803     50.500503220873192
H      49.663784794650397     50.605248788728730     49.455329747882587
H      49.118349430453307     50.571767880782282     49.174111394797919
H      49.527864485297137     49.421629286555223     49.740800208312464
H      48.600259622070752     49.484953180385133     50.529503340723558
H      49.244810537524131     48.788372905772555     50.170821312751102
H      49.437820767718648     50.819272439184012     51.042673890173106
H      50.214272323178989     49.492897720103038     49.911315349526149
H      48.271920753930452     50.218999947197347     50.535105286044768
H      49.899514998078423     51.401861472050115     50.776618608674745
H      49.964701949610046     50.464361333986744     51.417449051320048
H      50.710295974744923     50.635719302229283     51.426682984442273
H      48.797407310027211     50.628331770646611     48.526082192957105
H      49.095873490676397     48.170330068327573     50.201028006041099
H      50.181118806130520     49.890882668983615     51.757027619993217
H      49.470661955126452     51.174672885638920     49.628060630800398
H      49.598336104676235     49.911268504866598     49.248962027295924
H      50.088153814636641     50.936815505458171     50.947729083967324
H      50.754821949576097     51.243246311093621     51.636091017921167
H      49.204034277714371     47.917105722521256     49.499912576969443
H      48.737388615325763     50.052891726401242     49.941113966318156
H      48.526928066011713     48.346822920031862     49.671322392371337
H      49.027059592234693     47.311683480409137     49.610827691182969
H      48.385984981509317     50.715167153699205     50.021520438960486
H      48.572821733996506     47.867492803680705     50.663623972489411
H      49.789827597543230     51.574938358902457     49.586395335763996
H      48.440567744184719     49.687626459390160     49.638712032828316
H      49.818996222432460     51.699679673294426     51.443555262318299
H      49.035581796277896     48.652571174230758     49.317150376078864
H      50.672404221939715     51.531190552801995     51.102397880929331
H      49.824274922079383     52.214888787913125     52.027977904150625
H      48.762153798093294     51.282817092115316     48.098794474931985
H      49.762849453063829     51.118195127529646     49.001720253233380
H      51.467980874775506     51.134516460034995     51.759448510051662
H      48.814639082794493     47.189529155287161     50.580558299307491
