38
lj38_benchmark
H      50.000000000000000     50.000000000000000     50.000000000000000
H      50.323405105253507     50.598095152010771     49.934947519548906
H      50.385467526104840     50.789290078729273     50.396196360738152
H      49.541851768280040     50.073328566306053     49.822783205822923
H      49.276761123549967     50.325427200704432     49.428074689375059
H      49.738251720885067     49.565010131002417     49.394041480580086
H      50.216261253191000     49.442783063739064     50.167529994605871
H      50.107402927894000     48.776216055319281     50.098007277256471
H      49.471515337439016     49.537196633570133     48.835289818784979
H      50.412051906368724     48.985679216095761     50.594703429073874
H      49.960073264533087     49.250160094910505     48.329089636186730
H      48.859167450499804     49.698042794687233     49.141339539592778
H      49.754091497899310     50.584032416903867     50.723290608946854
H      50.642053825001412     49.062804982772640     49.936277418506471
H      50.185206000213043     49.248060195603280     48.854920555384261
H      50.711455834237228     49.757667355310758     49.574227555355371
H      51.154837915323654     50.252103834632642     49.760797128182098
H      49.661274173356183     49.564370426396188     50.106148471529231
H      50.258485441006258     48.210019396133085     50.235948955137886
H      49.123063675085142     49.408835401804950     50.563116082893629
H      49.424653640325403     48.890252414571094     50.939586564834812
H      50.606538118898584     48.257605717377366     49.767472750332473
H      49.814553191857307     50.035935669849842     48.935694626353396
H      49.681523409413629     50.988661540423422     51.218067619763993
H      49.582156257762335     48.515395268522305     50.098072245752739
H      50.567994470816878     47.690136662805934     49.341613592165842
H      51.586270302412856     50.190268445518576     49.213592679108956
H      50.870741488908180     50.875443712709277     50.615264068509234
H      50.346417751791932     50.401533775233062     50.898804231592052
H      50.898792055240577     50.480834666820257     49.061950596775425
H      48.996985885514100     49.858084933191527     50.074520218196035
H      50.412702160812167     50.778017418550967     48.722080196066841
H      51.196648009522107     48.939359511280543     49.645471233802560
H      50.568676196842048     50.037848188627088     50.469038256570954
H      50.999625861926901     49.794704132735667     51.065742030843658
H      49.845984682130130     51.477050718333778     51.334406579235285
H      50.883482193113331     49.505131001792634     49.096592852081180
H      49.529390307981778     49.180587021962140     51.410943101021161
