38
lj38_benchmark
H      50.000000000000000     50.000000000000000     50.000000000000000
H      49.377359252531427     50.267351227365296     49.768109537763941
H      49.440607418037011     50.898772174214820     49.355793480156073
H      48.985284772129781     51.167123466629604     49.070296522295813
H      48.892047459704479     50.442753437328918     50.184621713629348
H      50.087372752147431     51.015664604268693     49.586224413175984
H      49.202303160846803     51.657701249218086     48.637621326443160
H      50.146239651944306     49.701977311652428     49.398791821991672
H      48.907811950304719     50.407347652419496     49.110793430788164
H      49.277634818203403     52.404669673389186     48.727478461316188
H      49.597807241339581     50.044610634357376     50.538441801353265
H      50.547214724878664     50.215967893138362     50.029462314908272
H      50.034047706425838     50.448264579180659     50.453797738034098
H      48.839675306072969     51.542282038106308     49.632047818801297
H      48.626968985933047     49.825919329700461     50.174131854789415
H      50.636475738051914     49.537766798386620     49.841861996425081
H      48.415971433796564     50.916500425223688     50.474402682833272
H      48.264617244913943     50.003085182167581     50.664109837944579
H      49.480610725486230     49.640689401078120     51.063689004118764
H      50.620892690014543     51.018482546336266     50.092788327599997
H      48.574374216370629     51.902997969875059     49.270415320647970
H      48.961455780985609     52.616370339045815     48.242788065563886
H      48.664951943221674     50.947297658411934     50.907713745196752
H      48.223959805942968     51.102994731627611     49.209859515935229
H      48.344908787055367     50.564043190641542     49.645667930977361
H      51.138953564620131     50.116496478258355     50.515281646143833
H      49.519540525972275     51.305460036031143     48.396969395116280
H      50.460635754006304     48.916098408758948     49.723869910834765
H      50.476334501739906     51.550736051421936     49.625932603007790
H      50.445629375467142     50.471089946384133     49.388798870603004
H      48.892009993458601     49.123311726615057     50.426966708129285
H      50.600523836290783     48.428766462679079     49.323902310286726
H      48.549363466781109     52.682303978279307     48.573682945841583
H      48.106463271808074     49.749591065489355     51.132863943947484
H      51.806520109785403     50.206549932112715     50.585904052098854
H      48.316767821210121     49.578627336867058     49.862239193819804
H      49.142366394618932     49.172590330004020     50.900063933168212
H      51.079127579683188     51.330768912940258     49.831080250222428
