38
lj38_benchmark
H      50.000000000000000     50.000000000000000     50.000000000000000
H      50.158906650277125     49.709447842504829     50.380179532606519
H      49.908847634533679     50.569586769842765     50.063443396124732
H      50.430081773721042     50.295407877599779     49.414901671422861
H      49.966424579442517     51.161612683710395     50.416060781861276
H      50.674776526386928     49.643244377052000     49.521473306253299
H      50.755503197606302     48.953284802208010     49.562224668830012
H      50.914967506038771     48.272489990713694     49.504156019312717
H      50.495817700797588     50.124275528092817     50.718756200953194
H      50.653656039651842     49.970759669572857     49.950654206343486
H      49.376298155509538     51.026662192782332     50.209331565946812
H      50.110456385692615     48.717136413191611     49.829372988146162
H      50.428650994020842     48.406171026035146     50.248299691047642
H      50.116870301717100     51.696728026033931     50.085669761546079
H      48.775182009148075     51.137158824517833     50.164343686871128
H      48.923489531630914     51.750420550442421     50.122541135133311
H      51.308370761196173     50.011443512939564     49.906001682377962
H      49.413123899327822     50.398426537383003     50.083399355983424
H      49.614480896437335     49.586064438824884     50.588716347487271
H      49.483476998824926     49.841708572706288     49.666806676199826
H      50.592610379558167     48.213262066383642     49.099732377290039
H      50.430707733525772     48.325347464007876     49.702533134519271
H      51.254316439961748     49.432318797771316     49.185326478099562
H      51.106526553907088     49.667423865641403     48.454576487994281
H      51.816864178530963     49.409137403383831     50.026397997048370
H      50.222108689077430     50.856259672836323     49.130176952876411
H      50.736456940692030     47.755988451525091     50.111075047089884
H      50.937239225552595     50.992606866996901     49.275272578142605
H      49.873809471849640     49.154505095591439     49.671439409176628
H      50.814873960011489     47.712866702403332     48.728505135396361
H      49.517524748824762     51.497913252540592     50.536860162490612
H      51.965589219820210     49.512054184121766     49.309696164250347
H      49.842825561696621     48.404840205221952     49.324005479719460
H      50.300649117332689     47.900951295207882     48.784715526928167
H      52.024395021605969     49.059873375886831     49.024442878225983
H      52.142431365561862     49.995843511027992     49.172368969817725
H      51.237342734725878     48.359379935899668     50.287761843363228
H      49.255205632427781     48.866895086960660     49.769792863571269
