38
lj38_benchmark
H      50.000000000000000     50.000000000000000     50.000000000000000
H      49.965027468111316     50.027057642780548     49.303687098347687
H      49.637594458680525     49.643236220599519     50.361500043847968
H      50.417552088316143     50.380924359685778     50.448756035055482
H      50.231302547899340     49.344881210379953     49.864126699313779
H      49.813276085080339     50.367798782566084     48.833641228329263
H      50.573865237346290     49.113954084369773     50.169491246429949
H      50.932487908639729     49.597934041149628     49.794410575362008
H      50.628825293483537     49.419275486113349     49.120445862453330
H      50.178056506636615     49.488742136640347     50.827806103463381
H      49.566896263427637     50.236687747807956     50.771898822869922
H      49.916698162023927     50.809312401195044     50.724627174945191
H      50.155330963897669     50.698356040255234     49.294028967656097
H      49.556920912363189     49.711172991682972     49.496432329205277
H      49.567029556552868     51.002904663349952     51.029168056922906
H      51.224659600875121     49.387069756954808     49.112153838265719
H      50.827170737129990     48.424896212293689     50.283154008125294
H      50.817497872903111     48.419030240738088     49.754215161999561
H      49.285459399930900     50.386375426222983     49.004371650382936
H      51.113814614719580     48.264103252223158     50.984689495427148
H      49.943188793834253     50.681093160716223     50.084147340531942
H      50.280806613437690     48.787057239672990     50.944052197556573
H      49.694645423105328     51.343681797544932     49.359196831802663
H      50.664734939468460     49.686511786884097     50.971171103030024
H      50.676069036522627     48.342430609543953     49.219562192580902
H      49.034845373776264     49.504365286200979     49.185566222222597
H      50.573940909258937     49.587436926388527     51.558959547603727
H      51.243250017127075     47.753537541973508     50.264048103177934
H      48.410330313873274     49.118135722171893     49.031976744449665
H      50.542835720897628     50.280981014752953     51.309457214605857
H      49.041665147507878     49.720459649822551     50.946720607183011
H      50.020711179435708     48.386086205342657     50.476489530266392
H      49.729666816003139     50.840749297152023     48.314735837769774
H      51.126783262137607     47.220708577704393     49.989338498448262
H      49.224967863481154     51.392621296090248     49.692503571236720
H      47.957677947791765     48.697955499511849     49.114633541422002
H      50.047266967947515     50.886432754173242     51.474095321830177
H      50.908378418682410     48.527132424115024     48.715061955328814
