38
lj38_benchmark
H      50.000000000000000     50.000000000000000     50.000000000000000
H      50.204458751092346     49.333665518379043     49.787720149912701
H      49.619174127455153     50.659399646673158     49.935581474137642
H      49.993752824344114     50.561915565408242     50.474885229384171
H      49.492530806904277     51.098495317767394     49.460255365743329
H      50.691841947675627     49.288499654835199     50.328980437580590
H      50.616800405768913     50.018857527520680     49.959532514614168
H      50.162330867371260     50.601423871316818     49.785683807624409
H      50.411511777106490     50.621197255263368     49.091084338869521
H      50.315433617765180     48.650182942660429     49.403869157785309
H      49.797038661685519     49.623169561029151     49.200777403000927
H      50.117447013677726     50.417639638698510     48.489444243935395
H      50.842353777895177     50.047358657846168     48.976182173380408
H      50.596363582798475     50.002561601242860     48.180491877459573
H      50.353718344199514     51.016255407081800     48.038784481957187
H      49.718767297435953     50.008029108343102     48.135409219738960
H      50.557832407250665     50.248419900376852     47.542575703487117
H      49.467107542486481     49.875626890827945     48.778104481711566
H      50.908989342893861     48.953421606035469     49.912632255751681
H      50.010967365989757     51.134845843389904     49.931385848200954
H      50.501314345840022     51.527693977144843     47.750059880994925
H      49.914022958252637     51.822393750492637     50.198192545664575
H      51.138923863822122     50.785872565640467     47.544773470028993
H      50.566328846744277     50.306663999799191     50.764505974260580
H      50.916049731947091     50.693543375295697     50.294143772604315
H      50.328892966274935     51.534552259840211     50.770639786223718
H      49.913031580697208     48.368193806516217     49.320685597149840
H      49.657406616410228     50.436260033007301     49.408342172041522
H      50.246743635515820     49.401464270711578     50.889438004073014
H      49.096686457054048     50.541981214916071     48.880925943163739
H      51.252293526227412     49.261753243733438     50.260951339572031
H      51.004127132658986     52.072944560559279     47.630782002223071
H      51.255613359810518     50.234164622190463     49.645914926283538
H      50.226789276092667     49.212329020227038     51.485462969979658
H      48.476338226083293     50.743424715847517     49.339013673832554
H      50.772608516523761     50.200773030071858     51.492944668082487
H      50.525301887328737     51.902300254276682     51.300376656831787
H      51.313929423577953     50.414466998279863     51.508322302150994
