38
lj38_benchmark
H      50.000000000000000     50.000000000000000     50.000000000000000
H      50.295779048775302     50.616381642704333     49.898463797898820
H      50.801885060795293     50.137222189427497     50.293135835322580
H      49.871672283856824     51.015944531986882     50.292696229886268
H      50.850420402952160     49.825310127461087     49.672158303806540
H      51.214416925659194     49.681123192756367     50.402131467265086
H      50.401181975236746     49.605292672808751     50.417737174070005
H      49.561960022145776     50.843923011578283     50.758260368607942
H      49.402394171763099     50.203726463797388     50.214720171874291
H      49.962117303605424     50.428887716090223     51.141403375924277
H      49.804900517758249     50.342619287566613     49.318508818201614
H      50.009089479147811     51.367010483473173     51.012480669796936
H      51.761833602206643     49.196263617189537     50.584895209574682
H      50.786139040075454     49.943407427874263     50.822521966293849
H      50.150591339442443     51.546830314151663     51.596586874388066
H      50.487556452480717     49.753786256835014     49.238412004707428
H      49.451693814006575     51.801121706818101     51.187139522730028
H      50.675032360000714     51.628195779599650     51.109641267253231
H      51.869860010303100     48.872374012275856     49.920061171593780
H      49.367473495629426     50.509898770884682     48.903897616342320
H      51.924652800472622     49.945266798301596     50.595226741691476
H      50.602366159408625     51.429158285528338     50.608903283221473
H      52.118548336716181     49.301139036867156     49.302392379718178
H      50.270556196961266     52.162637511003560     51.567515944973529
H      50.447923327843590     49.123069405626204     49.304636271680913
H      51.198782224686234     49.853819607866498     51.260391696765211
H      52.493200526704079     49.702482888414465     48.991911008948783
H      50.676096567376739     52.406087539531235     52.035182554281668
H      48.907289107223654     50.467412775131763     50.803004964001985
H      49.052286111553272     51.629675932783137     51.585032015761982
H      51.912183519657297     50.445650139887874     50.960639757660928
H      52.104732013438422     51.094871157884967     50.717680699871153
H      49.194695651119346     52.289583269975836     51.281643143136108
H      50.089631104772387     51.006123409663104     49.333768419403519
H      50.582782959354304     51.038537663335489     51.435023638242527
H      50.821467736270172     52.762145596677534     52.657508835434875
H      48.774302172042724     52.566765470679833     50.681626742254736
H      49.676382697091583     50.278812437689687     48.308813677180950
