38
lj38_benchmark
H      50.000000000000000     50.000000000000000     50.000000000000000
H      49.670668546392051     50.371416586519942     49.986290993889995
H      49.158307419065451     49.888503907470970     49.969219279307794
H      49.336738842859560     50.574483463704119     49.605315832373861
H      49.527909233513128     49.824367849084162     49.373239193420027
H      50.004380247423327     49.243985232378940     49.269825126596665
H      49.440530243790228     49.602750411041427     50.638332240503090
H      50.166523591141015     49.231708555947350     49.757458489371402
H      50.380477638004734     49.529228411737215     50.187918383843922
H      48.868651279556204     49.710940169363937     51.069277008290456
H      49.613911091031184     49.195789109719236     48.571123176370293
H      48.863815901041399     50.418718037737762     49.280038534176761
H      49.713678353016526     48.788877307295309     49.560442963580677
H      49.168147209261775     49.212808745140741     50.123068009084058
H      50.751126405210329     49.215050654315604     49.838877071930447
H      48.595603415141447     50.115052233552184     49.836240262422045
H      48.382650085100913     50.247575361206415     50.410604341251940
H      49.715931331548369     49.030553069957257     50.510332793648303
H      49.280111188246686     49.393007494655663     48.071961409801339
H      51.182717752621265     48.920150248192648     49.484936351924951
H      49.419180514645575     49.275147605474103     51.122552821528885
H      48.862078077567141     50.236904054281254     51.452084242442126
H      49.243234470234206     50.353479784396328     51.949168752316581
H      48.280341659301733     50.582978348881262     49.842330298854392
H      51.671173452880012     48.425333730782867     49.455667296201732
H      52.198259509994472     47.880610371623213     49.588264828984848
H      50.839897693795145     49.804961293611960     50.476668703458316
H      48.398101072528114     50.686186708415690     51.888834390019987
H      49.534731544973184     48.507899627306465     48.984808496428514
H      47.938219747723743     50.281206823157468     52.240180095535734
H      49.072920350267182     50.641412423524798     50.296219697679653
H      47.722984035312365     51.070628583068384     51.943930451701398
H      50.629730115895299     49.406177696965059     48.888772065387428
H      49.770144297191500     51.005507466328076     49.624481636646280
H      49.162427152169897     48.306723229658246     49.344015785073871
H      52.418667900247883     48.713752692369162     49.373493184592093
H      48.462900233828378     49.553043536290183     51.536172796548300
H      49.949682832442662     50.320978948816901     50.451228044536222
