38
lj38_benchmark
H      50.000000000000000     50.000000000000000     50.000000000000000
H      49.811884857169090     50.533807404574972     50.027595449422279
H      50.106429882690236     49.486367604044538     49.969087313694075
H      49.696526774116968     51.035093477814193     50.354237153596991
H      50.243453023268785     49.264063845494896     49.229554324897990
H      50.746925319536807     49.697392230046930     50.184698139184690
H      50.811391216874426     49.727869749265814     49.550785915254281
H      50.018791394544465     50.084972878708548     50.532081471825784
H      51.109494633027708     50.318864862607768     49.301972598387444
H      51.118390605286770     49.418063844533684     50.674870207499985
H      50.090517944153234     48.634862711200405     49.075831501452534
H      49.739544850319973     51.480730128587076     50.887124532025290
H      49.040743102305711     51.318492503041362     50.769784988211285
H      49.886852391499907     51.505605311134204     51.672002144756263
H      50.481477267788414     50.150103649154467     48.996925706049410
H      50.872192408695646     50.372930865593119     50.156971333104423
H      50.216948886404424     49.320873313019582     48.527140545881110
H      49.362437094840573     52.012741127444087     50.491695985450555
H      50.983736059570965     50.028838593830812     50.675902245513868
H      50.767593465209032     49.500314581395124     48.313840847197156
H      49.475980619450411     51.234194561481083     52.040438429324276
H      50.143389630926251     51.380477938196798     50.439531533815170
H      49.961496609017530     50.504878119483223     49.065898731126637
H      50.149415721295817     50.953764478240714     49.291758533118774
H      51.256728438491642     51.084623228545858     49.147000848552977
H      48.682083827579895     51.174953479931240     50.217723285994971
H      50.849860491000584     48.868798738947071     50.733695614099325
H      49.659264465407411     51.991328225379213     52.036066442710336
H      48.646560573298494     51.053470452837416     50.992500836137729
H      50.759968735264714     49.604942396171005     51.344414274312143
H      51.164113042703434     49.117038176368794     47.821889586086861
H      50.462137304430470     48.150699277813892     48.973699836478708
H      48.901827751795835     51.806960832234196     50.382534997123983
H      51.374837653471616     48.585077886611124     47.759853821595613
H      48.360880835037051     51.300525587187920     49.752770279677449
H      48.339394464942565     52.123114368194813     50.125268674417285
H      51.337047714146301     50.220121278488122     51.025917004711189
H      51.544094218416916     48.866185213371480     48.337110414089992
