38
lj38_benchmark
H      50.000000000000000     50.000000000000000     50.000000000000000
H      49.625435509975361     49.848373178155477     50.635539256262483
H      49.174665382824131     49.790759783331879     50.155511678872983
H      50.064326258964520     50.615223425759595     50.439209240020276
H      50.614987484168381     49.798253983860093     49.590027010787480
H      51.279549224877293     49.576709145105390     49.488409787286045
H      49.847138686189140     50.472733962972733     50.962857698635716
H      49.181898054737083     49.627081847371777     51.107231183151022
H      51.764932869277388     50.121670271883858     49.522532880228191
H      48.770323959428445     49.452160235548142     51.577923226522550
H      51.822043610628612     49.941278452283306     50.221835240786824
H      52.323396812903994     49.944763645711433     49.310819898589017
H      49.526914322015131     49.149221063267788     50.646775727562705
H      51.619535693091578     49.096361659388698     49.335163173145496
H      49.975215186297774     49.306837983526762     49.668729114383204
H      52.025429594097133     50.683957961372840     50.386191042498346
H      52.584390568782325     51.147730369789329     50.474724364336964
H      52.574863198605584     50.344956415427291     48.767096337128059
H      50.115578220730150     49.530767620685232     50.117594377153942
H      51.781049400652570     49.406767618145025     50.786633869414501
H      48.496772991862507     50.023951266015530     51.022490826491776
H      52.120593558974619     48.853634214212171     50.746369695149752
H      49.629006300265139     49.862813110716679     51.687359828720751
H      49.128374831541166     49.017667791706820     51.145437057014774
H      52.159330592937280     51.143849540166670     51.118858980675213
H      47.923181818633331     49.866768990451163     51.238999307273332
H      51.073694985160778     49.268683913433584     50.963635173729720
H      51.819590345074467     51.846283017146732     51.281293425324996
H      50.787678663022817     49.279184240830773     49.451793909537344
H      52.615608765719827     48.514997738170869     50.969041657447683
H      52.470384838628661     48.026381686184138     51.169073502546873
H      52.234462879488078     49.864307195028367     48.719318513449508
H      52.586066962887941     49.318734943259408     50.362020598099903
H      48.744558921436422     49.624042211054302     49.742886105710660
H      49.198123227006029     50.261105934222854     52.104907031237374
H      52.083338511444026     49.362546773866107     49.419282272983480
H      48.723018285847878     50.707089178388856     50.879865032951827
H      50.219640053980193     51.125220535858546     50.142909239371967
