38
lj38_benchmark
H      50.000000000000000     50.000000000000000     50.000000000000000
H      50.398678249269928     49.697443152151955     49.627661050897629
H      50.390747732484016     49.249089561574202     49.329147264629121
H      50.455247390088317     50.084102918149107     50.350122507007626
H      50.137744955618913     48.858141250261497     49.800853095098702
H      50.430388352741296     49.329045377541092     50.590280724220513
H      51.024376229391287     49.591767360416974     50.855671044953745
H      50.029863599836006     49.294245022557980     48.648609288428418
H      50.112985357931308     48.278726707528648     49.862936735083792
H      50.244160269382583     50.339489978190301     50.894015909938119
H      49.486368042837142     47.940956670083160     49.666370737726574
H      50.341775447989434     50.836754159626445     51.394493547580254
H      50.672401126229786     49.685134319584797     48.575076703857633
H      50.054590828519380     49.297403941001136     48.075756992910009
H      50.060518914557328     49.363023567382996     50.134502918197747
H      50.679915031816499     50.034733132200493     51.422410932223244
H      50.714406145741393     50.293183342564568     49.813189320626620
H      49.327977080792273     50.043646423887864     50.064340119415590
H      50.867199468292462     48.850967326124909     50.615159313527172
H      50.675312559257343     47.859991388926773     49.629523763482936
H      49.772406494438570     48.110665746642461     50.396315483181539
H      50.929018656811706     48.423181001842870     49.449996195588596
H      49.290115261153943     48.505096142853034     49.150424787357174
H      50.669277078407021     48.202038129980458     48.823493922037912
H      49.993527511731187     49.797089898141358     47.478413578137122
H      49.536311768303037     50.508881018096723     49.641025140325631
H      49.671366997568768     49.963321372207297     48.643992638524097
H      50.209234476787081     48.732769100371804     50.769768412127362
H      49.306706399375450     50.630249520322963     48.542405203008457
H      49.333751641295535     48.956125818930389     49.705991833277359
H      49.474729767296516     49.969222994148211     48.077702683538021
H      49.652507651776602     48.705223281386530     48.196468869551452
H      50.082127037893009     50.320848722658162     48.355406356908020
H      49.043723667143226     49.692148966055179     48.406855468804117
H      48.686971987239055     50.037003487187157     48.611119558293716
H      49.477648493655934     47.344056189169194     49.835335405494995
H      51.131930060953145     47.630597638879323     49.525699209684156
H      49.572975395872660     48.048509813783632     48.173732339827566
