38
lj38_benchmark
H      50.000000000000000     50.000000000000000     50.000000000000000
H      49.984948404446754     50.483256981945047     49.485383161109809
H      50.314791703059498     49.871506819954419     49.114975228805477
H      50.826938406876629     49.339729934425726     48.933091635739316
H      50.746862885901507     49.539690266875816     49.406201418658000
H      49.572366482853724     49.713421546149114     49.255894031241795
H      48.972576024388104     50.128296063989389     49.455756228517714
H      50.645290298068758     50.718494591885786     49.642675035666635
H      51.285613938460671     49.123886159394814     48.625576531118057
H      49.670996197532027     51.041095457103147     49.689067220165981
H      49.445167655771087     50.643200170104983     50.270703462170218
H      51.680164943517447     49.475984586378154     48.927045712431941
H      48.603437521699888     50.106422632349648     49.938482225803888
H      49.165866364189228     49.843953961068408     50.127118905194294
H      49.493641170090513     51.514587773957764     49.617850890882927
H      51.284360413556769     50.040645765744308     48.592393333034344
H      48.985727236497084     50.015376775307075     50.605386676597952
H      50.604317943942448     51.451389401685226     49.321675909083432
H      50.496145465958584     51.054250872686104     48.942365290184419
H      50.535944056970692     50.274719867342107     49.402366085415764
H      50.378881590999853     51.137583912124036     49.911409261570441
H      49.547351619898024     49.151319076778051     49.425199115694703
H      51.170819432576387     48.980432903695366     48.135987117254530
H      50.895360199444923     51.237024898385464     48.491615295119530
H      48.963750984627204     49.289433447683642     49.614869482054097
H      50.862701390355056     50.461680267203846     48.441182433475468
H      50.166517050192567     49.313724042177668     49.012997727404432
H      50.398443512386351     49.623852540152107     48.395550324824548
H      50.414785779617311     49.292203843369364     50.067355899013357
H      50.406100690152023     50.695499078832057     50.290166787784941
H      49.334593154637453     49.993060328009847     51.272483222979915
H      48.392148680057851     50.678285382181542     49.894759146938753
H      51.003336214257651     51.767943154590398     48.719063247108608
H      51.207538406463733     50.493415025259289     49.906960194729812
H      49.940281752312110     51.070812459099443     50.721528656530104
H      49.293168664096861     50.352669465746715     50.851600431126840
H      48.512574081382944     49.557800521574030     50.781642651240901
H      51.117094043486908     50.844190107481133     48.927563243098106
