38
lj38_benchmark
H      50.000000000000000     50.000000000000000     50.000000000000000
H      49.648712197293129     50.393714460100099     49.439899034272244
H      49.988669168885956     50.736044617777488     49.642057636966527
H      49.931347134625646     50.142616341723901     48.734111454100869
H      49.569635533140811     49.807535479506079     49.251670516514494
H      50.519282909185364     49.828570417021389     49.747838523031625
H      49.503413195625363     50.292854604367939     50.288624699189448
H      49.324726269750926     49.544225726107641     48.724576046740680
H      50.727183269593631     50.544360381821555     49.544886659848629
H      49.208691983286286     49.983002370030164     50.594504386143534
H      50.505116890835772     50.936888357582717     50.160537037484566
H      49.024761188962387     48.895754815368939     48.515556192141460
H      48.353254529000253     48.996491073594179     48.273548524938455
H      48.263216926337314     49.690647006902672     47.920882935685626
H      50.327993791298638     51.654845196710525     49.961573860895349
H      50.066102795402060     50.916052799962102     50.393607430746222
H      49.324839709374906     49.263193624007378     48.140561794357886
H      49.617908785394071     49.613920675899770     50.139747222554128
H      48.875172577173139     50.121767712014567     47.640785140045686
H      49.260842553293706     50.541525664022082     47.945238737531938
H      50.429794412573507     50.017583722079841     48.519296747056764
H      51.033537920182852     50.551238480248529     49.003813331814399
H      50.628000249563016     51.944156282857655     49.333496472923315
H      51.014607000012553     49.904405255452723     50.291947025387948
H      49.859958429055119     52.251981263971381     50.203329446414685
H      49.969852217082376     49.480088554936842     48.348600285394120
H      48.300174234078412     50.219895478206183     47.635063304096789
H      49.958895955676134     52.112492526422741     49.719436668873371
H      49.799369864241619     49.420122310858595     49.562334364106874
H      49.924209628742517     52.156465134472356     50.916242091721109
H      48.070962648909926     50.254450577575248     48.159869005469254
H      47.789525837647290     49.878131718956922     48.608516749167563
H      50.978952146727906     51.154854005028724     49.065436210860014
H      49.024258943696296     49.156491410516558     49.114568268575354
H      50.542029537015331     52.147174507608362     48.775070528998327
H      50.807500977051170     50.725333259509981     48.331318879380959
H      49.371860328410776     48.632199174355591     49.259352916149439
H      51.537197919812286     50.016952848795576     48.701731724144771
