38
lj38_benchmark
H      50.000000000000000     50.000000000000000     50.000000000000000
H      49.869491073303131     50.011761533861964     50.794434056933220
H      50.637975458522646     49.619066811380627     49.952155482702963
H      49.999404317218406     50.771587157145845     50.644842791935929
H      49.503165936251342     49.837169434187452     49.991990794297941
H      49.980139628754316     50.718696245980709     51.155563059051808
H      50.035770692593957     50.667458283661041     51.834419452964248
H      49.635255732532073     50.150427935438181     52.249455811001340
H      49.993814977730530     51.332223490407671     50.824735979561716
H      51.060990098858539     49.435278299252033     49.318464750173149
H      50.697623345281045     51.088412427169992     51.689066868019026
H      49.583825684377061     51.195366477172385     51.763113973437122
H      49.054936525708570     51.142729850114783     51.721491063068321
H      50.585788961303983     49.681992765328758     49.177602025885896
H      50.220689745728080     50.326992830849505     49.568987890734448
H      50.447581412023915     50.805044578823860     49.773344981395738
H      49.206520172976930     51.530669028929779     52.036546810074235
H      49.508922633608563     51.184269908728673     52.398347766897793
H      49.225516017199986     49.672274435858711     50.500142436810499
H      49.816251231264644     50.079667315652884     49.297605580531950
H      49.533757274501610     50.302857358872615     50.277789218691638
H      49.540108199712542     49.706779528711948     52.697416894110084
H      49.231574937987695     51.019441889179411     50.398336674087965
H      50.212786424199798     49.269861648648622     49.808593108273946
H      50.545214908676996     51.459713403308555     51.047134559390109
H      48.760946865630750     50.567058989037953     51.672685336071851
H      50.986536050142284     49.930506044979303     48.997693055084333
H      51.431513826097081     50.231924946876326     48.709640373117097
H      49.997688578191529     51.704545645405318     50.198698429101746
H      50.890876028500550     50.501536164950345     51.637615064890625
H      49.119190487269151     49.267560969329310     50.169768648011569
H      51.471769297663300     49.873784633420442     49.432683780688663
H      50.122015073477151     49.104496012947223     49.284779079381750
H      49.622428807338693     51.165500371345964     53.191070037946012
H      49.482567967854614     51.071953897577529     49.894397941727647
H      49.653158899893057     48.870824205099161     49.428303307949179
H      49.298048252926300     51.473056894781429     50.133113309607950
H      51.327021331980475     50.103687001892894     49.942664071540229
