38
lj38_benchmark
H      50.000000000000000     50.000000000000000     50.000000000000000
H      50.194067363970817     50.469083356356585     50.512562396804100
H      50.594377718494556     49.667956930054089     50.026637192356574
H      50.104661820504489     49.785518693816030     50.721593656712223
H      50.378861242449233     49.056438711489136     50.394798606541869
H      50.121919742146702     50.051124624740268     49.353485260096676
H      50.135324937271754     49.262582924146628     51.111694683744041
H      50.096687999920071     48.487759226607864     50.904111569962197
H      49.837578421247315     49.317106383896466     49.839462612205111
H      49.547271736586040     50.344395386802127     50.244629369706246
H      49.532433759889294     48.481817015301225     51.179286340623278
H      48.935556461753180     48.829160062921559     51.383854526375345
H      49.228343318373213     49.868656940935466     50.335999751725318
H      49.646871977790390     50.694929065246598     50.844237866704738
H      51.057166830211642     48.799955627078290     50.193703609641233
H      51.276876834793789     50.015795629555029     50.083615499808431
H      48.912944411696316     50.518856630660991     49.862478746950586
H      48.693657592929100     49.895668229000599     50.816333816295007
H      50.219304886349335     48.243225327990380     50.312654983429510
H      48.545225502916871     49.387021097797415     50.477310560489585
H      48.539072248185818     49.734282307941143     49.828062904122177
H      50.932851251608362     49.862927069386934     49.675979187676340
H      49.782071397664005     48.659935456407659     50.130268375464361
H      49.294505688008279     50.705899930940411     51.506686593084126
H      49.858278853201838     48.746349299688887     49.555455483015280
H      51.608502808022891     50.660634571395732     50.001941829120113
H      50.768129894484574     48.096249408052302     50.829692072760679
H      50.215434722647636     50.883285068548680     49.969801429923052
H      49.550282849557284     51.457097160732737     50.749307180147362
H      48.835133904044710     48.280802588264145     51.661832651921827
H      51.625552192219210     49.833258845215049     50.501946480922257
H      50.033184727654309     49.465259972111880     49.331721503647017
H      50.422365214142296     48.926763047908622     48.968238483751307
H      50.063856775690418     50.906560444629157     49.312455220153410
H      49.453645006940071     49.939123210145759     49.094751300456878
H      52.120701886668463     49.900781399402454     51.000598752742277
H      47.921549611293827     49.521198013058019     50.717602806846912
H      50.068109518218904     50.138224423878491     51.419682590897892
