38
lj38_benchmark
H      50.000000000000000     50.000000000000000     50.000000000000000
H      50.300163385725590     50.637464896580063     49.991387238582448
H      49.980129895084758     49.932894037526800     50.799568103328589
H      49.639494009700236     50.883861751873312     50.119523428033844
H      50.172063248708845     49.465890917093155     51.377524225974980
H      49.501388369714377     49.077826714466887     51.437139059090399
H      49.651483535458418     49.599322831431081     51.969841884826764
H      49.612155483022200     50.178961639919656     50.402001891096525
H      49.011125438458173     50.585397173771533     50.017403741275217
H      50.728898644624067     49.796525043062566     51.318100238173194
H      50.714124567468915     49.989615988281138     50.848105846775823
H      50.927421797964413     50.335450875432258     51.158491509905517
H      50.082092832258503     49.333775803065727     50.848504896510100
H      50.076064816784346     49.733886620006331     52.437638560730107
H      50.888338351883156     49.588716998585475     50.289638555262229
H      49.155796265190638     51.144346635189848     50.312410714662420
H      51.141535615004528     50.963601407817904     50.831623481094539
H      51.323507484997201     50.442032608089626     50.268943227429475
H      49.240859536350243     50.262876241885849     51.850738084834710
H      49.442656556382730     50.777337603742424     50.948173679361901
H      49.653440761336029     51.085886386566457     51.375291382923010
H      49.523537613879000     49.879569609769653     49.602098214599820
H      50.645225476709911     49.716978878391430     52.208401773993543
H      49.222532333233033     49.980004919610963     50.074396825972691
H      48.737909905655343     50.420418018055756     51.265166282630595
H      49.146996640565376     49.345701330265271     49.482728985610841
H      49.427271762213650     48.813063751256820     49.995216716941229
H      49.943456133220828     48.626191234750614     51.842003398810526
H      50.138585130301038     48.158785878963009     51.346411356907751
H      48.699433273758679     49.185720196655936     49.026080358137889
H      48.543635630440939     50.289894155647481     52.216021792431739
H      48.073703671240736     50.637616680986817     51.391207383988323
H      47.564334639465613     50.955424285249642     51.228271157535978
H      51.650086874779447     50.700375857914771     50.894968730220725
H      48.132788488427451     50.384945492568761     50.790013146507697
H      49.905292697505601     50.890983741135550     49.468547468016347
H      52.136558716147867     50.689001243683357     51.125622875058006
H      47.555328646460204     51.484805686889672     50.770917881768469
