38
lj38_benchmark
H      50.000000000000000     50.000000000000000     50.000000000000000
H      50.537351392684158     49.746898253584384     49.774360882026571
H      50.314823556324988     50.510001711270583     49.505727754397512
H      49.714484202154409     50.307542457578187     49.303174673791496
H      50.988679961261226     50.513823009319566     49.063677624245088
H      50.790062407930549     49.925413008270553     50.515036392776310
H      50.973591150476196     49.181867899757208     50.372164059770007
H      51.255104768422783     50.051277713050830     48.550283716157267
H      51.359799573373571     50.368800119667412     47.858597125723151
H      49.652044487411899     49.529368882046072     49.968369748547197
H      50.795268407890291     49.961368864813764     49.371591787295323
H      50.862851637491637     50.260263590452752     47.877742800913502
H      49.475407174484353     50.458467374668999     49.918116079917255
H      51.339368299667299     49.567792491520564     49.028532831932587
H      51.235229421259533     49.850844193681240     50.770783123123444
H      50.838827608308414     48.635736517236559     50.705188547421677
H      48.893849947022424     50.364660086843337     49.466908899152237
H      50.306840884140016     49.090621869501206     50.705620716424768
H      50.688702416446581     49.121358104019798     49.734453678819825
H      50.186365696534324     48.961648985344198     49.256549686738282
H      48.357483142733884     50.482530788840215     49.772116579811843
H      51.754968996934572     50.007262108974246     50.717649367993602
H      50.448851536716070     50.393734034352555     48.237449083090333
H      50.833023593251482     50.631380532446315     49.902997858194290
H      50.840940313594146     48.054010028359279     50.235042873875052
H      50.791700243236953     49.038591702116591     51.166691095354984
H      51.522316585855229     50.151237042824754     49.170783382090711
H      50.382291383943915     50.833373607457254     47.946590012603693
H      49.865983822228571     50.883083435893802     50.474632392462368
H      49.815727145668461     49.805742676036225     49.243098293808842
H      51.339862527458067     51.177407250963370     50.133124963909594
H      51.643510486265647     51.665794512637667     50.480043837463754
H      49.056331938420804     49.392446490030011     50.279158775688515
H      51.500832013501665     49.336993601224165     49.994456105156729
H      51.189608587260906     50.256414197000765     47.372449949048431
H      52.352842783524537     50.190067388187863     50.603298937014927
H      49.352474972580140     49.650047068553370     48.860632366522616
H      51.665135792119614     50.335270836260563     48.262955379026067
