38
lj38_benchmark
H      50.000000000000000     50.000000000000000     50.000000000000000
H      49.552848590329972     49.918577182996998     49.462546129886874
H      49.818982043616913     49.909845948675610     48.718009439537532
H      50.465053283828183     50.489895223297758     49.748141893417213
H      49.249050843905010     49.357919873567887     49.782343106251950
H      49.033140428013141     50.364148001933970     49.509384821089917
H      49.931937921593054     50.670490141740721     50.072620180564755
H      49.034757499430512     48.654929269607791     49.952058836863742
H      49.930251128665496     50.899992743282660     50.716319914704968
H      50.088520508657865     50.556438937006718     51.063970530414750
H      49.226704720797358     49.916007169129578     48.909631676433726
H      50.357352630637813     50.555973073114004     49.203979697209448
H      50.494055062678164     49.701374826928628     50.230980535651504
H      50.350037442306650     50.965514935241551     50.045245985355493
H      48.966673317599870     49.982889428291237     49.861036265644188
H      49.297302557201249     51.232996507780129     50.927327956961186
H      50.805683388976277     50.591986912836994     50.816494680976326
H      49.647346989943053     49.406353866452470     48.321300943342642
H      50.056792327550255     49.154605602237609     48.013697657151155
H      48.464712329122762     50.092431687415164     50.058391734445010
H      50.660660307731561     49.068092003992533     49.942785254432650
H      48.958013642618361     49.542756631663345     50.230696087167011
H      48.941083799898507     51.345986957738496     51.279600219641679
H      48.721918866307014     51.531226457465721     51.967195488180508
H      49.128556662781300     48.633349293740146     49.319558726277506
H      48.888313458377596     52.152708216452361     52.007922461288217
H      49.231208437487162     49.075163237571196     50.509082990737319
H      50.384457581430198     49.339055430166994     49.253669466750587
H      49.716546227027031     50.283679939703525     51.504890545097957
H      50.295079909612028     49.682398902652558     48.146171844921696
H      49.849312065194894     49.791069188786580     50.951031902423637
H      51.098407312261322     50.848389816458059     50.506423892457988
H      48.603788799387317     49.541172299194606     48.764177280375037
H      48.618891525753789     49.952348818454631     48.438054453813628
H      48.950075111161468     50.114200526040449     51.385999823382718
H      51.045948178822293     48.961379621876098     49.352568219218234
H      47.918606015231560     49.823176408915785     49.018735033911668
H      48.467840477544293     49.846301340975678     47.875415839651701
