38
lj38_benchmark
H      50.000000000000000     50.000000000000000     50.000000000000000
H      50.348740446575832     49.915204616393964     49.284753845520683
H      50.536185449651931     50.280441901419927     48.923671969867378
H      49.510197014063344     50.608672310235747     50.129986462043142
H      50.817652308180016     49.496991685184518     48.928475192106497
H      50.273234679657449     50.739509721047867     49.128250658805221
H      48.934876306333280     51.095652809284253     50.333176220073845
H      50.900424564595021     50.192516723091920     49.642152915516029
H      50.420703779548660     51.008835396471582     48.491496460209817
H      51.016775730444095     49.265774633100705     49.368328223451336
H      51.381993615297148     50.261391476786073     49.496453021736876
H      49.430051057355186     50.993759062490632     49.462587491880555
H      51.482117236684040     50.753809715563861     49.412621099981173
H      48.757060485363724     51.085481408829089     49.436640666753576
H      51.196926435059837     49.630613443196658     48.293668235291626
H      49.730645107535565     49.877152037416110     48.776852495323148
H      50.476359865415567     49.186085703457039     49.773236653099325
H      49.696615274593640     49.639348696359868     50.280497038406033
H      49.263274987709778     50.461866152405754     50.664754857153582
H      49.446500373536189     51.462719007078874     50.449490756348126
H      48.374377854532248     51.151438670400815     50.349307160783383
H      50.828244935069549     51.371408123620895     49.069546467266250
H      48.785720004038204     50.971856813016913     48.937525144934071
H      51.700999600815372     49.633211613070898     48.148808523528324
H      50.541028701210351     48.923955207957022     48.733933666403466
H      49.622427784678280     49.621839187801839     49.317332639003908
H      49.976909601036638     48.817149382774339     49.554341075091287
H      49.724248113799725     49.160376118964031     48.838727173819457
H      49.915336965770535     51.236559344571440     49.101368806526672
H      49.058923187375321     51.528752530785546     48.699078982516347
H      50.995345398697452     51.323975148172231     48.560882485395311
H      50.326359748245977     51.522878922986244     49.026935353000319
H      48.353385919470284     51.573115401597263     50.897172377922629
H      48.335167755831868     50.585025228720369     50.542374411024383
H      48.153709896605648     50.604230677536293     49.117476617201028
H      49.824278886053335     48.347106049385665     49.908475079310556
H      48.806958364876728     49.968643233465571     51.092352967587004
H      49.028748990109513     49.427103636650841     48.842954131840031
