38
lj38_benchmark
H      50.000000000000000     50.000000000000000     50.000000000000000
H      50.355590683787824     50.554224421810453     50.252517351298835
H      50.868126923125565     50.374681699716625     49.892895699659547
H      50.018337728790115     50.358831206669713     50.637736134970105
H      51.222711688019594     49.717900888450536     49.632030895291450
H      50.566797356434783     50.116800570425667     49.569963003707194
H      49.836211125297680     49.677353654959362     50.389253162519665
H      51.232372779275153     49.110330044923408     50.007339653158432
H      50.984309988644263     49.429205313665044     49.016662036028713
H      50.917233610460663     50.345447046264070     49.237419515847598
H      50.287935135962385     50.636711841182674     49.150896835959529
H      50.122305854900809     50.167218583046797     51.203315241888767
H      50.554704477186746     48.908077940858185     50.281020060079037
H      50.805544625069828     50.793055976318946     50.345648710739532
H      50.021183419250796     50.027881208524356     49.402486544156545
H      50.706384602514994     49.447036376349040     50.689739462693858
H      49.378017026328472     50.351465999187248     50.567225325668609
H      50.038103372403256     51.195871084337213     49.504467685308420
H      49.522543875378780     51.748933934895220     49.630347329784989
H      49.535281191339621     50.823308650254084     50.835226338534945
H      48.985720856022141     50.732293832017163     51.320990450170335
H      50.576327794522754     50.427532849372966     48.626887234952385
H      49.598192578717729     49.353862986600262     50.797315507113140
H      49.152131161868667     52.264183551466324     49.854136932007677
H      49.138535598065609     51.414133536236591     50.005554915390292
H      49.498815951970421     50.173235510341350     49.605086915245501
H      50.194895270077026     48.501318401313988     50.550605424520242
H      50.102094847630042     50.794809715591434     50.991483744907690
H      50.231705046162936     51.889852014856714     49.318386270740547
H      50.762669756328748     50.906198155517949     49.132396686083631
H      51.180267933035587     51.573902959367217     49.283242386585478
H      49.765243434048045     52.530267512159597     49.830217039499203
H      50.978566322464566     50.737203050741016     48.306789557788633
H      51.118632506856095     51.485151339574792     48.736058481235240
H      49.728276192184751     52.173272355739783     48.834741919751927
H      50.801784154811870     51.567865568150125     48.091761066460180
H      51.104330486528688     50.816386722830536     49.594225775475707
H      51.240519921937988     49.936185696276972     48.476355659315303
