38
lj38_benchmark
H      50.000000000000000     50.000000000000000     50.000000000000000
H      50.195667353133210     49.884840165244157     49.373693054055011
H      50.071778103367940     50.601149266702222     49.118640953576239
H      50.477747991656344     51.107600724565302     48.769163748021697
H      49.973827574962314     50.923117544676522     49.627105804409204
H      50.408777131758931     51.214747043980708     49.630071987457526
H      50.421414380539588     50.127714079608779     48.808901824164977
H      50.887255258107977     50.306534872585466     48.352560772644836
H      50.771379072301357     49.500314198622348     48.996593276019915
H      50.202615643446279     51.414572087321517     49.096728060229097
H      51.243196940386397     49.229240851871083     48.407309630085365
H      49.682257286504516     50.354134754500237     49.533283719416943
H      50.712210640613009     49.307164258248108     49.559699451272714
H      50.663324496748992     48.851198991334179     49.074479104494110
H      51.650030053990903     50.236334689600994     48.469052186639743
H      51.122972290398039     50.894789693758305     48.265685737225255
H      51.108722525295654     49.755597857248240     48.533310689386425
H      49.165426366216607     50.503758913510467     49.956224699060513
H      51.469853444228583     49.472985099495816     49.282881537925938
H      51.253077573359285     48.534033278854331     49.047570957415722
H      48.875204457542139     50.665839624402338     50.623372842419379
H      51.904226323218637     50.001988732700070     49.318931061413878
H      50.480997859622107     49.841457537570193     48.384326414102567
H      50.621839894441251     51.386387651226379     50.258246567436061
H      49.548673732384728     51.770382298335669     48.797997114464323
H      50.921923028369669     48.798242648152979     47.835199276009760
H      51.468185989402450     50.029919298848469     49.903053594398571
H      51.110239059219836     50.579913530067749     49.773965610091366
H      49.526110634506232     52.380095277890625     48.627845958541457
H      51.733385883134304     50.728521892745874     47.899419988676364
H      51.234252529864762     50.747524305259674     47.509256370416807
H      50.224921533236405     52.219761087401899     48.441963602071887
H      50.774072566963653     51.690497490154904     50.791711645627771
H      50.876685348218047     51.536410830211778     48.432241740079412
H      49.797526812176322     50.435303711407961     50.567793227460989
H      48.583266622325425     50.395186540150689     49.607073453191035
H      51.435437624532234     50.142462512204915     47.886539466967008
H      51.526120128798546     48.363486536149580     48.472454710125795
