38
lj38_benchmark
H      50.000000000000000     50.000000000000000     50.000000000000000
H      50.084498687489983     50.145269487855643     50.602580566343626
H      49.663285582051110     50.795677252872686     50.707951126501236
H      49.077899764766798     50.690131037648065     50.946376725882523
H      50.361594379024197     50.294819594507906     49.352351331406489
H      50.812872598503581     50.288408279275551     49.098805348320248
H      49.305804443296900     50.300456536815908     49.809604281575318
H      50.445850810873033     49.873939414062988     51.046651514723756
H      49.706628682682172     49.525884782693915     50.205152457174314
H      49.493719524486856     50.068992529827497     51.118658641046650
H      49.144365208545146     49.982917154770576     49.204093669065152
H      49.026082420166148     50.509519948549794     48.804989985471792
H      51.095635753278458     49.848713606057402     51.446003114854669
H      48.445826742601930     49.851053467650452     49.281456870898509
H      50.281796206399491     49.710307302237076     48.836363838583971
H      50.346161175764607     49.704013359059402     51.627845403618856
H      48.566355345685267     50.145792576999341     48.450711145621639
H      48.595401151460862     50.363642466420274     50.163814721054770
H      49.499270174629885     49.750960072757252     50.681924076489466
H      49.454927998600638     49.280769411245430     51.291671065736722
H      49.651031008729348     49.255310683518736     48.684545884713039
H      49.940494365326757     51.455456551413093     51.047725523130175
H      48.964676215516050     49.800257514691062     49.959022001525696
H      49.252267667661911     49.311696944350096     49.005830985406533
H      49.713298810150206     48.794849647029075     49.187567007318101
H      49.526215723788383     48.679737924340728     51.790950631085522
H      48.440719842207280     50.026240658863145     47.911302154642570
H      48.852443117394827     49.629624171503224     48.646945542852514
H      48.647750822206831     50.630113081665478     47.733806934923983
H      51.239155418016722     50.875303348223568     48.792260933025567
H      50.615060051094488     49.006233130906885     48.969873587069230
H      49.733304758170725     49.105669950278994     52.212934802790151
H      49.195244724370795     51.135995473273709     47.753929899431689
H      49.453703278789000     48.171031354203862     49.430914633871808
H      48.730345932871103     49.749908268168234     47.222617442671122
H      50.486027410949980     50.575484984037203     50.807523330559214
H      50.992684708962528     50.831496165199148     48.248986321340865
H      50.067874642862847     49.811461993204304     49.471603475448866
