38
lj38_benchmark
H      50.000000000000000     50.000000000000000     50.000000000000000
H      49.620940513061292     50.473416022415591     49.631868857558203
H      49.986125423322733     50.101763368172911     49.164816959702399
H      50.223229819781295     49.615225871226507     49.535146363333837
H      50.856798285671175     49.371169237599517     49.142316521044258
H      51.237615199701743     49.709271850403702     48.616243562388270
H      51.134727108689887     49.174286062318778     48.162960173510371
H      49.092461501329893     50.791752370528279     49.449036559431399
H      50.399456274317608     48.875983960663014     49.445145761708254
H      49.703209975467907     49.327330414028864     49.583936041732741
H      49.748429776580643     49.988289742730295     48.696125264331606
H      51.119783700501209     48.708960218776689     48.552337151142410
H      51.671817709689314     48.620734646208270     48.751491699370945
H      49.576815863448260     49.620876576189055     50.065197503421935
H      49.897204847105414     50.699611854330207     48.506547169436494
H      49.440288447064880     49.268199510672808     50.581931497152290
H      49.266980959003220     51.510829617663681     49.768244579326279
H      50.706465703509117     49.768438911186394     48.370726260960190
H      48.669690902897969     51.240346964474284     49.351940072055029
H      49.779214847328390     49.672556529582678     50.548082141895591
H      49.547079554565407     50.928966661692463     48.960468956175433
H      50.029306156090385     51.251509563138463     48.981216463201569
H      50.019837680523899     50.550152480901261     50.210828787373558
H      52.351397854145596     48.789913489368246     48.748620155919525
H      49.909268769084441     48.470479298473904     49.772451725665519
H      51.556787161415158     50.205202465262815     49.070195899306711
H      48.676937415888403     51.766077598389352     49.289891284624325
H      50.647330885123139     49.332298114307491     49.797638887685764
H      50.371860465976596     50.567462229973401     49.362811448779304
H      49.309572481600554     48.895980155990799     49.813429052700350
H      49.061765217962140     48.316233083743029     50.276092468309479
H      49.013313959282591     49.558979144430161     50.946138173348572
H      50.298409761528177     51.022086421450894     50.682570808373754
H      50.436993318400930     48.123371575983626     49.400212989333596
H      48.998205345907436     51.334428549935993     50.292653900772848
H      49.146592952481321     47.989704646666695     49.810263825242288
H      48.496568809393366     48.064037909703060     50.116392600188938
H      50.728680167441730     51.341326295319632     50.713291991637142
