38
lj38_benchmark
H      50.000000000000000     50.000000000000000     50.000000000000000
H      49.663065215082888     50.086551802208348     50.423368243774441
H      50.601207075637603     49.713527403593645     50.213389278654446
H      49.632675811278027     50.569156919119600     50.006074784269700
H      49.474806347435447     49.505086832075961     50.820476532375316
H      48.747914510787709     49.390540429816468     50.909808387417186
H      50.482742973531607     49.369921854074875     49.501031048437490
H      50.912702229348973     49.644374514928280     48.944603310568297
H      50.564086782085447     49.143918080080844     48.569145444834618
H      50.962374233797703     49.144742493363708     49.485480449590462
H      50.333156441886722     50.094767894482217     48.943535828422796
H      49.764441678553567     50.554548626869803     50.611365817081271
H      51.217206117076984     49.696578993172054     49.534272763155244
H      48.832525212576101     48.734191551018867     51.048614354043039
H      48.842502160122592     49.716805836946506     51.481645487526499
H      50.012432034628979     49.339271761355732     51.171832401671836
H      50.076601920979840     49.111352651520932     48.074481365362416
H      48.896218709766160     50.457051834756456     51.538051279373093
H      50.283962826017223     48.934036397321869     51.672765848503111
H      51.761645010241594     49.742693439371870     49.286570894211096
H      49.478019927823489     48.388641540099357     51.077218943074435
H      49.363558544357346     50.919652391280046     49.342679320829788
H      49.595048492242221     49.316738266403256     50.134350087919003
H      49.464362142831916     50.709548813657477     51.072386040393610
H      50.634841338412173     48.486093562641777     48.130807481653953
H      50.674304375435277     49.422808330000294     52.089480468708004
H      50.070100926800897     48.463536418272191     48.293098690702720
H      49.272947067893547     48.904749166506818     50.023475423454130
H      49.781989237803593     48.134145325638706     50.462356390864691
H      50.286833588496670     50.596210969593677     49.402315710046587
H      49.057716337161487     50.151381941020340     49.773683892998996
H      49.881309681506195     47.496070995297302     50.345382344591897
H      48.351078013756371     49.461926920735436     51.424111212285254
H      50.391051680200235     48.321062597793706     51.675713725906597
H      49.201112576740172     49.746204134403676     49.383601000657670
H      50.426274007353719     47.408469939604281     50.087623053768404
H      48.699438550467526     48.752809635004148     50.071463172561202
H      51.605540941552903     49.684738280945936     48.728084679395835
