38
lj38_benchmark
H      50.000000000000000     50.000000000000000     50.000000000000000
H      49.844855255773489     49.386095881365186     49.560492564486786
H      49.896328653569071     50.616210778038599     50.477835254144296
H      50.104990880220747     48.770979295003173     49.482847294270663
H      50.632759099988817     49.279574289473473     49.161803257943248
H      49.563478536003274     50.467807246031121     49.552701449364868
H      51.053043550605793     49.546739533235638     49.222452521996651
H      51.586587748460538     49.898054369205113     48.991930664081984
H      50.468120796391673     49.795184598191440     49.398000217275168
H      50.496538596536070     48.696556395134571     49.927566924153730
H      51.237301122838574     50.319295229454134     48.845217279943434
H      50.368282965977720     50.418130056064371     51.088818372452288
H      49.208153886404034     50.856754553944192     50.292817140381004
H      51.686337727678065     49.671339650289958     48.425458572745221
H      49.821203824500436     50.348879884836883     51.605809960214835
H      51.543563013445457     49.214632661264247     47.833511400876475
H      50.858175217745000     50.131173704101570     50.847018038982519
H      49.862562105072307     49.664008691038930     51.828904826899702
H      51.813864179033061     50.310650248680680     48.777813237580681
H      50.443476527321209     49.852616368288530     52.047797219256694
H      49.722356049855058     51.057675550853681     51.283414156161577
H      49.283277464260109     50.674368170948540     51.697984501727682
H      48.758360925821115     50.942000908048861     50.031186406235392
H      51.473809752145165     49.093820919094682     48.333411844047120
H      49.246311056770217     49.450538248497331     52.187377156771518
H      51.144343119022786     50.588381776737336     50.646086635158532
H      51.577631681252718     50.568049953176121     50.394303912233454
H      48.841760019547515     49.007076591940411     52.012880926034761
H      49.997517335031404     49.173447687632290     51.211906161929200
H      48.898155699352088     50.652241016503545     49.440079829536479
H      50.065723022757297     48.393669800444336     50.488846478362952
H      49.376265770856278     50.162153630726728     50.431516611069533
H      51.434786101484406     49.691244220564833     49.616299225872943
H      49.845013471351642     51.104686371732633     50.320052897923802
H      50.131573893365328     49.181447115930453     52.125628993989167
H      49.778326119156418     47.705622336488730     50.339943080479884
H      48.976556920051365     50.188112828389478     51.029404540988935
H      48.834861645434543     50.993284515030254     50.688037395821610
