38
lj38_benchmark
H      50.000000000000000     50.000000000000000     50.000000000000000
H      49.542152006123615     49.694200774599587     50.530617359799827
H      50.034249693435989     49.682037667000422     50.919658432973328
H      50.566503655331289     49.175788908578895     50.879428089863048
H      49.241639259906108     49.709883364815191     51.059633992253012
H      50.677496676023154     48.539352194809254     50.915598459461002
H      51.246670647890859     48.515839183944834     51.482758711636066
H      50.505647529719383     50.488134088716698     50.308067257101627
H      50.041806827241196     49.189284278314162     51.267398787133267
H      51.369161275415379     49.018706216461190     51.468687285944398
H      50.291528419079917     50.821858215034290     49.673732468944095
H      49.976636630005245     50.148148468354684     50.477294789953724
H      49.711687989219989     51.060574490840224     50.077930554570457
H      50.983372381670883     50.166402575027035     50.556944324157037
H      49.865935641122057     48.635301381509287     51.015574102902704
H      48.735443795585070     49.715043072703779     51.084014509006622
H      49.166250642682769     50.829062844165392     49.678423336547574
H      49.015995368071373     51.491491812459998     49.974340553447860
H      51.309963218724512     48.708350742177139     50.531332085747799
H      49.832005052547686     49.945700980835113     49.290012757788816
H      49.366036008896984     48.888314623595150     51.453215387324150
H      50.053901650057263     48.489349769806537     51.712838378113879
H      50.459084335223253     49.227503741674560     50.288211177235205
H      51.008820419518671     47.821417384936709     51.726974902068143
H      49.852858073423711     50.327306312288783     51.254861466955433
H      50.392979427508322     48.580546139165342     52.144832975198774
H      49.053242314641068     52.136980874517050     50.376243005262864
H      49.736049386770404     52.503255329681927     50.161570227386441
H      49.842281161225017     48.955248514272128     50.615231872297905
H      50.009019592220120     52.233201748840159     49.723088810303771
H      51.393197179230100     49.216830604743777     50.058849420154928
H      50.608970062861232     49.826383000313932     51.239833628153796
H      48.824166334876629     50.916452742024696     48.993130062267127
H      49.114493693774484     49.914650631064852     50.136766100641402
H      49.681072901784013     49.359036761988747     49.194100049096733
H      50.533748077061063     47.261520390687181     51.736046814146398
H      49.178849587061890     52.442142996966815     49.685512230188095
H      48.339857515370440     51.440350044451080     48.963407577241441
