38
lj38_benchmark
H      50.000000000000000     50.000000000000000     50.000000000000000
H      49.870169985327067     49.515437101383426     49.855270386516501
H      50.279653190930986     49.069402433649500     49.851920843979251
H      49.920217068336292     48.484125600637633     49.735565085281877
H      50.419080739993369     49.859006306799579     49.750004541847993
H      49.898579231431881     50.509124361684911     50.268471557287768
H      49.346471379825310     49.524882247826184     49.655781112447428
H      49.366408559058520     49.549810604267215     50.248232340005416
H      50.598428696824961     49.671359749535348     50.473200053285495
H      49.861413548612695     51.153877788972345     50.387066938171060
H      50.835627354230496     49.547351645922888     49.237561110153337
H      48.863221441759421     49.347858242936816     49.119089942061514
H      49.037596948816720     49.309863774451195     50.634765142901387
H      48.906869079369017     49.855686552177389     50.478118643540078
H      51.047948926555726     50.192679905155366     49.834852747544446
H      51.331362641252916     49.699373050020363     50.265278962231733
H      50.726648040950764     50.373796708283670     50.606371004681357
H      50.843197318748608     48.869923370591970     49.782418989437318
H      49.514819754160918     50.095937098118327     50.636209145991884
H      50.256980418924762     50.169137926798953     50.711583162401396
H      49.519253653934285     50.716997423785394     50.733198492419532
H      48.787333021538970     50.750621629952441     50.984596708274943
H      48.183484412688905     50.696952882416575     51.096664048616034
H      48.487952520191023     49.473202977514376     50.766697688424614
H      49.282430775129704     50.043029611394516     49.123667192754539
H      51.082014157357428     48.256015471949993     49.643080941833567
H      47.878852749937607     51.370276141668100     51.093469752747929
H      51.185425756471950     49.729974779536619     49.611746828216475
H      51.134014602944390     50.954744535799342     50.283579235727828
H      49.332159973301415     51.143301178501808     51.113117822623138
H      51.306271077972553     50.638099513047948     51.071746131192818
H      51.072901912564461     51.368969629428321     50.900110296423492
H      50.407534644477941     48.056000573082862     50.183487603058872
H      50.382622717642995     49.384051109863229     50.844016029599771
H      49.650322350815607     49.908202549505290     51.404230546100045
H      49.419057961069207     50.364503668561191     51.907665093002826
H      50.559681684239656     47.905400866875254     50.863040072538354
H      50.602869717251217     51.046145109437525     51.463629606746572
