38
lj38_benchmark
H      50.000000000000000     50.000000000000000     50.000000000000000
H      49.848111377377904     49.350049145646224     49.655556222821872
H      49.989716976670032     49.192586818664076     50.374662591403471
H      49.390336540499945     50.059099700844861     49.724424403000121
H      50.406028209232183     50.390159680111175     50.461609893532824
H      50.130386395991565     50.156057251147736     49.466636775987794
H      49.858759379881917     49.723946693378352     49.245805248262371
H      50.807357835119170     49.713604086564423     50.577619841800171
H      51.375211962827180     50.040824115403652     51.037025349169788
H      50.548404340498976     50.514326030552787     51.205875531342571
H      49.927079101297146     50.903817657139349     50.554191624389709
H      50.218162817877570     49.716972344766376     50.598391861203552
H      49.385982071630920     49.403588112253090     49.221880518815070
H      49.735923943212974     50.452012030861567     48.929678479479733
H      52.077907079241321     49.886009717529404     50.784783197637054
H      52.160034111962169     49.191695952057017     51.066746457148909
H      52.282422661064885     50.427003267056300     50.836722884251174
H      50.304302542436190     49.628685275258363     49.444332431517168
H      51.146066590422308     49.709689738338270     50.074241893709605
H      49.329733378690108     50.380382289143952     49.323539763715971
H      50.821038976743147     50.691891051212536     51.864796049895524
H      52.706378844476312     49.075512117686472     50.769566369231669
H      49.123141871972351     48.973133957189923     49.716011481934011
H      49.761177404760637     50.892521954970711     48.418200058047390
H      52.778038046650373     48.541330772643796     50.544755319414108
H      50.059245066583848     50.869583154660134     51.368053340801339
H      51.452712756001922     50.374432228920298     51.608752891957003
H      50.857002004338135     50.732374296618893     52.478104936668956
H      51.061912771690892     51.137064988532117     51.567910617155221
H      49.594412099034827     48.556597750257858     49.628071361860592
H      50.400126227452013     51.457610942828872     51.042923149900950
H      50.996783230908655     50.268489760220120     53.011329280664214
H      50.668704004188328     49.204659374934579     51.139116881898843
H      51.432201167399370     50.087551585582979     50.487777408622101
H      49.371670712586351     49.973452081045757     50.254051724552653
H      49.351176510760681     49.991205332522725     48.847342623605179
H      49.884015566857506     51.615427620426374     50.211388397651803
H      53.202677903186853     48.803454604237828     49.963810430810824
