38
lj38_benchmark
H      50.000000000000000     50.000000000000000     50.000000000000000
H      50.661370835304631     49.989435738099381     49.621906171231252
H      50.016423094563329     49.751834987854117     50.494335612327767
H      50.155915381726537     50.098463127469010     50.989155902188067
H      50.140037349119403     50.416274261261627     49.295120816921305
H      49.515302722719362     49.292952309576826     50.564563491579598
H      50.477631908092206     50.088725827671269     51.490543605072602
H      51.194277851719320     49.900926435445804     51.629716820397171
H      50.476583729867279     49.331744590155786     50.949059735205253
H      51.104199016114073     49.182061965920170     50.680596721956540
H      50.142208382831527     49.384170670303220     51.369895454041497
H      50.508376539905981     50.276263397786025     52.237535463290016
H      51.729778009194455     49.620923571657556     51.525048981783662
H      50.183708200571225     50.541930419183288     48.761541759538169
H      49.101179145933216     48.823770862834280     50.904216067608999
H      50.219166687354978     49.337089441205336     52.088639712523069
H      50.407361213304888     48.965505715163161     52.690364642332753
H      49.375996715272294     50.010328667989732     50.445049254099530
H      49.557795368646396     48.432853456167017     51.033629267127189
H      50.226031161063077     49.618782011618329     49.063275696564190
H      49.983748347632599     49.051418246067094     53.194010375859911
H      50.512503365736116     49.371557682287921     49.741331623006268
H      49.059486609963535     48.298407006380586     50.487550619485255
H      51.727333487284220     49.008949929365464     51.061310887987688
H      50.881190100167046     49.694067395723060     50.267436885073792
H      50.816645834121680     51.020488635238543     48.892701085337116
H      48.909023018691528     49.103330808593945     51.567272040646721
H      51.372159983289357     50.269517771020197     51.027187235235189
H      51.560347739431101     49.562313029649808     52.163536480694503
H      50.421013583851590     48.877811925798618     52.088876473009066
H      52.287738105620782     49.612917442536180     52.127234421777700
H      50.993578843064299     49.905942689901970     52.695803157969479
H      52.682890239783646     49.564295404308560     52.581645695588776
H      52.027032224402120     49.617012380412078     50.983699828539670
H      52.147173703601702     49.839441558084751     50.326452584204105
H      48.878715780056545     49.598360256866911     50.249053062728649
H      51.653829995960379     49.139120867223959     52.789735710023095
H      49.140841114947591     50.037212440697445     49.794808387058758
