38
lj38_benchmark
H      50.000000000000000     50.000000000000000     50.000000000000000
H      50.656196953739382     50.118351098061481     50.265653451231174
H      49.992694299210605     50.303242041143477     49.339231810936226
H      50.685271851706702     49.604069085438873     49.967607944726915
H      49.824182538671224     49.793432214495091     48.871317351532348
H      49.403546409244704     50.369243344387826     49.286744818947419
H      50.277251060018557     49.615188508916440     50.404378118048520
H      50.500109235201961     50.433052493603682     49.287413638079634
H      50.918972398500131     49.999306507572491     50.672219992240954
H      51.306108476727665     49.122098253410456     49.816280873822031
H      50.227830510696890     49.380161335901462     49.330605167911365
H      49.837821973468635     50.996597490578068     49.292283420026727
H      51.465590558965012     49.071483980347551     50.418827499558162
H      50.578535880711854     49.758543994359322     48.658643960638479
H      50.361489483413301     51.089167264166129     49.043569789700300
H      51.088711838563974     49.595493144893538     51.174618184071562
H      50.680912540549407     50.760675399652214     50.631664894098051
H      50.861673951066280     49.522150620708501     49.364638675725047
H      49.733856097552767     50.457399518548002     49.734870194503415
H      50.496310063073764     49.104460978986793     50.334289802321706
H      49.210480279834428     50.784668972948886     49.592893408996311
H      50.893512167441699     49.689435406855409     51.739907957210896
H      51.270859166067282     49.710044837629823     50.442491871566368
H      50.291620375336578     51.239001675850034     49.817132922820285
H      48.892253906145555     50.556941768313344     49.057262465237741
H      51.769708858101581     48.662580016592479     50.386776953404578
H      50.887642893611364     50.978346979018134     49.052243579156652
H      51.742270065727958     48.563413502769478     49.597414933240387
H      49.884798444496582     48.773994107057732     50.681641023605138
H      52.062195241432576     49.236260867821258     50.546359444806050
H      50.171238798045735     50.936240544004377     51.167403876358001
H      51.168009696188747     50.826631696362945     49.493264895157395
H      51.278189657996691     49.986869556632101     49.406365485192289
H      50.235280747373274     48.585888798276201     51.212908801308565
H      51.727197417003616     50.309397093407746     49.222173838381174
H      50.749890551087930     49.458932316828232     52.445024189557259
H      49.601749378356963     48.960125121334883     51.191196454525723
H      52.074552065856153     50.024490505121527     48.985553028014827
