38
lj38_benchmark
H      50.000000000000000     50.000000000000000     50.000000000000000
H      49.929761770429614     49.704737641756822     50.525742404478287
H      49.716858974411053     50.409632132633114     49.599280384149459
H      49.123487726861001     50.840956304654881     49.646388116392224
H      49.249290059233338     49.815073512412141     49.878279038281313
H      49.029264201010953     50.296236781547165     50.244919728955367
H      49.090896266771786     50.007720748229424     49.377531842565368
H      48.410404042849940     50.231259894454006     49.392937129047795
H      48.608765136899045     50.007975096406909     48.720172729442695
H      48.702995569418562     50.647211606621887     49.162586915453389
H      49.800977578598349     49.691557104060415     49.628764377516170
H      49.785361080118967     49.579613215860299     49.072314127632168
H      50.615747872167638     49.979024974686489     50.731711502925137
H      49.667350326138354     50.931319152482885     50.146452455045669
H      49.440670178330642     49.997631214558886     48.834270387194401
H      49.498744675863996     49.223998047151568     50.834315305510636
H      48.818170786569411     51.098326173749648     50.123687326440781
H      48.467890939038789     49.470545059164515     49.139205592933777
H      49.937235408883652     48.644661769917576     50.622086469026087
H      49.361139489909988     49.645600464442261     50.341713442970374
H      48.328121059070398     50.999697801616378     49.098166194404989
H      50.787743361302375     50.068161851110290     51.328829003177447
H      49.783867601738407     50.569695040909885     50.630498893895101
H      49.471738718609778     49.125710076987190     49.595635892932613
H      48.199257764092785     50.372862496740986     49.842498516068289
H      49.013326646746435     49.451641334318673     50.964292560797446
H      48.426576729288584     51.341327487789222     49.477530806490130
H      49.981163983031358     48.905051630315796     48.809294857531555
H      48.081701456247238     49.141594788304182     49.084807127685792
H      50.024074631362232     49.835191598867254     48.714171729858720
H      48.638903467358283     49.780630693679839     51.527913953852824
H      48.825233320460171     49.238476195271751     49.430712470847347
H      49.638686704327412     48.915058912282170     51.347657428522204
H      50.629124144113895     49.516960245400462     50.278221865411965
H      49.590574928673249     50.960503060289881     51.277251525960025
H      47.803938480044408     51.385411152648679     49.986974826603713
H      49.416443235168870     51.510806723206024     51.222109113594904
H      48.539777756931770     49.842392562046783     50.001957663030581
