38
lj38_benchmark
H      50.000000000000000     50.000000000000000     50.000000000000000
H      49.723750803593219     49.828190627573157     50.449503398511283
H      49.557510093717632     50.371230327333613     50.711756352820636
H      49.782584111398087     50.713396388769418     51.382658975650848
H      50.272171920331807     50.635309803394762     50.903081200839708
H      49.653980646288197     49.255140527228448     50.663627584459441
H      50.091422602779744     50.764424174410351     52.032248029077408
H      50.309530211393813     50.336458542073885     50.409619584282069
H      50.558538376185830     50.691370699558377     51.463642901282363
H      49.031528242919357     49.803920918301181     50.050795517500411
H      50.690497931018839     50.285170646467165     51.808427502336883
H      49.300528149962034     51.137611940320994     51.652211130008055
H      51.272194421493396     50.879612389171811     51.558760629037756
H      49.727879547935558     51.462846724808564     51.193918993190600
H      48.573006019735587     49.917876007410534     50.344637042977389
H      49.676461145730457     50.120935508631298     52.027070640666174
H      50.077176636715976     50.252263647921019     51.687732535368653
H      51.062833767059395     50.476229478280054     50.602200984578388
H      50.161804712779968     49.645765474245628     52.160378663789182
H      50.588754232810359     50.889049894250256     50.186189597407491
H      49.094970987378602     49.795467435108378     49.466472901686188
H      51.101856386953280     50.550926691673226     49.830880900800793
H      49.655833865058902     50.114877400833315     52.741943358094787
H      50.689929137083979     50.794362583768198     51.940527594178945
H      51.722855079925075     50.728991989007007     51.271684877428576
H      50.515426800883034     49.140594941529756     52.433640628787572
H      50.604050889953776     49.677264484705816     52.767201087067825
H      50.333734662071286     48.978725214003198     51.762498072370249
H      50.900442229744769     49.293668583676833     51.906065894962786
H      52.325384079307590     51.099610498828390     51.325836145948031
H      51.160300225481059     50.126920326455604     49.239055506704091
H      48.676448665978981     50.859949359827212     51.641357979788815
H      51.531626277436942     51.116998392782463     49.615872669360350
H      51.347029367286112     51.174252458240566     50.906223757572128
H      48.403750854612959     49.849590154871649     49.072291598308439
H      48.019997943923961     50.271432469520079     48.686558049485299
H      48.962948274302441     49.876963453811221     51.936380422874230
H      47.602476227085255     49.743705240233901     48.586674992381141
