38
lj38_benchmark
H      50.000000000000000     50.000000000000000     50.000000000000000
H      49.845665713812117     50.192060040811796     50.628608765355018
H      50.070345962345179     49.253081122088830     50.115718348869194
H      50.256901919614862     49.820908798253960     49.372838572653606
H      49.930793876649325     48.978111961212875     49.580182966374061
H      50.194311289311507     49.657976010349046     48.860269169824832
H      49.201364739305191     49.278598068572862     49.571882421183410
H      49.862381133283883     49.479528602555703     48.429067549794169
H      50.783469216780937     49.201719999014522     50.110466996190283
H      49.913808377922500     48.468688550305465     49.294204530853101
H      50.706467342844817     48.775279071273076     49.805493131233000
H      49.443722273478883     49.742017892265935     51.078001798509646
H      50.081900596746223     50.685713806765463     49.710654117228373
H      49.476007774462104     48.164356458126939     49.753717444768753
H      50.910640002192594     49.341879228525862     48.767940568738105
H      49.538658892122186     49.121872339103348     50.345120062765112
H      48.998055560988675     47.972571890504952     49.134631680510196
H      50.596674285095489     48.179845421806242     49.281548305542621
H      49.767652445782232     47.817020613715790     49.036166499371866
H      49.809214148244209     50.011897445716372     48.444147750234883
H      51.180172279405674     49.848901306273483     48.675220899146652
H      48.725377593488631     49.346966438878958     49.799968006139565
H      51.226496784658529     49.778681485190440     50.237078397490897
H      49.909483389369960     48.279693139783596     49.977168378308789
H      49.755799937426637     47.094446797356689     49.043749573178964
H      50.694469092479331     50.154134128676006     48.227461368130662
H      50.896824796003564     50.375435967754790     50.117613305500726
H      50.481305094308006     50.664027511163951     50.226312901183576
H      49.344066583787196     50.165733979933030     50.708053445403749
H      49.860418187086225     49.553182460451161     49.631615195213882
H      51.545212807303834     49.265129730713809     49.923199077455877
H      51.699485515705106     49.360569843777171     49.429355291464049
H      50.563400318313796     49.812977482182013     47.803394395359128
H      49.970970985028551     50.829029953293919     50.727834655245701
H      51.099258315248484     50.015266026268726     49.778319152493367
H      50.761900688314029     47.868016644112963     48.730906108302818
H      50.676582858931667     50.059725340103888     47.114310318156662
H      49.697322060064842     50.234946105876702     51.315831836026462
