38
lj38_benchmark
H      50.000000000000000     50.000000000000000     50.000000000000000
H      50.022295010481386     50.333728526708200     49.346835540792206
H      50.539628466894222     49.933701860113921     48.923429329155312
H      49.840279045652288     50.544607267616072     48.752543995735273
H      50.863163772490175     50.605845379454429     48.699663281995385
H      50.395966906295918     50.771523217616455     49.375101076176833
H      49.311134487904546     50.784232626402051     49.149056238767550
H      50.118672713316940     51.098871792054773     48.810046951310831
H      50.018191699201374     49.868866085182404     48.978893197677607
H      50.966563667000507     51.278988082749109     48.933339378322664
H      51.163971954431432     51.783569505572608     48.406643904976278
H      51.548670834203016     51.710969726957337     47.720598671631016
H      51.106215064250129     51.894662986406090     49.260865804981293
H      51.411707796633749     52.246671886749276     49.687196676666098
H      49.921784840305854     50.841703210862292     48.026162858053304
H      49.831770000174238     49.563793346909058     50.519944582556732
H      51.009890766395316     49.764321478733685     49.241540915344714
H      50.301407001328485     49.437770750100022     49.143493092012719
H      49.843531015197314     51.629537143600480     48.036084650556987
H      50.903597223399672     51.669365982493360     47.828502016495243
H      50.768643159617433     49.711990495294735     48.197226431229801
H      51.948941396767147     52.251281980506583     47.916347352713522
H      49.330676674458296     51.374086234278934     47.544612632270137
H      49.492818055372432     51.657171016134292     47.041733160025295
H      48.889583746020875     51.286499551142633     49.344313869499530
H      51.284651047035815     50.906937092754717     49.278098655223616
H      51.234320331350077     51.677105166662656     49.730595140445132
H      50.233484605895129     49.158057011757030     49.994757150211463
H      48.504706270857405     50.874027642424871     49.748429231450068
H      48.822663350858221     50.352568473790392     49.205377350234265
H      49.321157877691327     50.057281157326734     49.148476690940932
H      50.654771070404571     49.582701763031729     49.849122477059552
H      50.135921154417318     49.363101889882650     50.895958529120570
H      51.706515692265363     52.635287230493283     47.655796166585915
H      51.352597330981766     50.453128342363748     49.752778665750313
H      48.420688951641488     50.394024336992949     50.293181416617308
H      48.624866639038302     51.466331769110219     47.852891994229857
H      51.680161955212661     51.357021913704024     49.372417842674224
