38
lj38_benchmark
H      50.000000000000000     50.000000000000000     50.000000000000000
H      50.574710577039802     50.359376213269606     49.955237882153163
H      50.148109567547841     50.318901053651928     50.715981800468029
H      49.873150781802792     49.338254619029833     49.623054562834071
H      50.251926482731136     50.165366832704265     49.352359890528575
H      50.542526574314188     49.097285874962623     49.891161318410198
H      51.183533371272510     48.756178225668826     49.947017652756969
H      50.742220815793004     48.792904323532923     50.402822083125145
H      51.051413252180943     49.598135897344982     50.008577842138834
H      51.627809673062650     49.515387032485940     50.169738914298264
H      51.369992106275227     49.090254148770796     49.272237295637538
H      51.036066701781550     48.555660037755480     48.843139796313046
H      50.896674740914527     50.273516252299004     48.948983856191013
H      51.216010178384415     49.571396362385883     49.080821720656147
H      50.908287664387593     50.346507625442889     48.195063980263399
H      50.670277136658392     50.838178588486620     48.905452050198228
H      51.236521051036490     49.280968191183959     50.782346953138024
H      49.392946095606469     49.244064357333031     49.110028657710814
H      51.040608579201120     48.617836050557656     48.068484456603393
H      51.864962709514352     49.717527706099631     48.828801166907304
H      51.869674969237330     49.234683292811603     49.291108556135384
H      51.410850626931676     50.461319822815177     49.110402547782776
H      49.554739761191577     50.453905865994869     50.736821803126702
H      50.315755117316940     49.683150626170097     50.654159921836964
H      51.878834765629577     50.023554253173224     49.750690876661402
H      50.382788342346970     49.565600570278193     48.899120158976999
H      50.265900182965318     50.013989252325771     48.432342369343850
H      49.525524545925272     50.721980390187191     51.381031094457640
H      49.316432227116366     48.587263788093502     48.716274929038214
H      51.662761907792117     48.599920178297751     48.319821045322747
H      49.309127725449414     48.963207896116415     49.640874779750447
H      49.978031788605293     50.815018683113166     51.742198465364254
H      49.437210973595192     49.438435058052583     48.482110693766707
H      51.249474552716897     49.199099577089719     48.372706311344238
H      50.552569094807914     50.909251047173008     50.394927945099958
H      51.001441864975803     48.290767300223976     50.264012430525391
H      50.725703724373510     49.469961724371416     48.245181074051359
H      51.033629172276051     50.375995981545103     50.616753378700764
