38
lj38_benchmark
H      50.000000000000000     50.000000000000000     50.000000000000000
H      49.473058591033272     49.985199098199594     50.079202178212562
H      50.486431056182646     49.610372108554252     49.845244080643909
H      49.774062711119868     49.351127763479333     50.263500775772123
H      50.241429310826746     48.790487013071086     50.250887724243007
H      49.459032091373260     48.938748842328401     49.710899977523411
H      49.109159423880619     48.376759916800765     49.909561563829556
H      49.019131759206289     49.580996219465831     50.419373399479667
H      49.347951131831550     49.234266377770183     49.229000083207630
H      51.120007497718781     49.482322385056769     49.913527813817197
H      50.420706229981036     49.741908719424089     50.632091946927510
H      48.695442163426350     47.917199866180859     49.674608721749742
H      49.770814472534106     48.152542112600635     50.325475551325610
H      49.610361995632474     48.402447195748380     50.800168350917247
H      49.977216313591377     48.339512699720487     51.325039470205937
H      50.213039159634164     47.889547483079390     51.474832481786756
H      50.680202994634207     47.936881956256471     50.877916091639833
H      50.647456852791436     49.668054317999115     51.169347806302440
H      48.637333943638687     48.283597898407621     49.058779669180495
H      49.653726950584797     49.565280472508121     51.000892627574778
H      50.004422522733677     48.755638967822712     49.603632611956854
H      50.289456375241549     47.484710514871850     50.361039601558517
H      51.722755878040829     49.426537198700899     49.877763644879096
H      51.107951391161265     49.348018900718799     50.441632456427811
H      49.994572219529658     47.474421884608027     49.839468628250188
H      49.285503254599249     49.092434089069052     51.194092696043157
H      50.848156488515329     50.041259457837846     49.490135912864616
H      48.981749670472297     49.504101156359859     50.943872489588472
H      48.957116929138216     48.621615105032312     50.491345327074427
H      51.339994749765339     47.834573464501531     50.953766401670102
H      48.704713385938611     48.775114401898605     51.192478990815893
H      50.806027340391289     47.531212640719538     50.432800928982722
H      50.764880098150748     47.054535400047321     49.920871105292314
H      52.050465406259598     47.711105581306150     51.128249369384847
H      51.468734189201349     50.102188850272469     50.087407841902440
H      51.517714494717019     50.071634321240658     49.396347202376944
H      50.099147360612847     46.911967385372179     49.817238997315741
H      48.242787435480679     47.670678590477593     48.967657148127927
