38
lj38_benchmark
H      50.000000000000000     50.000000000000000     50.000000000000000
H      50.428106832310561     50.043516592544336     49.517888487513659
H      50.341220862338616     49.462384610085998     49.628997366819050
H      50.996917447703154     49.346459102652851     49.802709287967772
H      51.166529344980944     49.327447264467608     50.331813141775413
H      51.665073602604515     49.714798012951150     49.641453263497993
H      50.322197803841952     49.376090912040645     48.838519562211651
H      50.984975674765728     48.762828220235932     50.294850970407886
H      49.690006040438526     50.083954865861479     49.521021523559497
H      50.117898335204373     50.047181041564230     48.726226952122815
H      51.983409558730514     50.063770908536320     49.047060774483512
H      49.101759456627747     50.362452869795455     49.062714108999003
H      48.760708836668755     49.889048420508878     49.045601579715552
H      51.698254468970937     49.590921328278078     50.159233349531625
H      52.499095268555081     50.408303059491679     48.732778891367623
H      50.256033555009580     49.467098103432264     48.042399648658204
H      49.069785139475790     49.238016653303028     49.213059745302331
H      52.039621077557520     49.294793435692654     50.583065214476605
H      52.963206047615742     49.942540669445563     48.576223159454145
H      51.021368519132274     49.167043446867339     48.947458078761827
H      48.808424803662533     49.205544759354581     48.758928080286118
H      50.572711244480963     49.975701400278069     50.013917455247842
H      51.407402587129255     48.903474521431164     49.489358440778702
H      52.171755434440172     49.897979132139760     49.746952145188587
H      49.743103656422313     49.156311945402912     48.078036766656815
H      49.580952111264502     48.642697744226908     48.424327532469448
H      49.791292996013816     49.170116126272177     48.689338474241076
H      51.945246147774128     49.744631753823512     50.789262297478132
H      51.381085810156385     50.151209249780010     49.488994844180120
H      48.157183207527481     50.272251643455441     48.924297386782520
H      50.921441520819123     49.942082765249893     49.122402117750063
H      49.762723775340817     49.562102318838200     49.511948482655988
H      48.212185480109618     49.005720618484744     48.315542743208901
H      51.188799778334456     50.679010989029216     49.726214302621742
H      50.566476076478210     49.999204469700913     47.617341481559876
H      50.149832346906599     50.397871700025888     47.173613384711480
H      50.147775280628160     50.692208779796985     50.325056072266875
H      48.554097922596654     49.512747392413637     49.418554820963962
