38
lj38_benchmark
H      50.000000000000000     50.000000000000000     50.000000000000000
H      49.900920339579834     50.004698807287888     50.725231430609945
H      49.407945911517288     49.956075654436390     50.647567389294977
H      49.917786493696880     49.532920393716502     51.259243420418585
H      49.749663532060531     49.328583732894131     50.173119329071305
H      50.245654586332748     49.113542769081732     51.630209550012182
H      48.735537178580067     49.643050160915401     50.952106658379542
H      49.641474407358992     48.745420746070074     51.954638533572542
H      49.436304582080737     49.765375385266971     49.690453618095376
H      50.838415480687580     49.260691894349939     51.529707838918476
H      49.272087475570899     49.576910275131468     51.192021798410295
H      49.927667627281508     48.812672709490613     50.206544885730196
H      49.291121562166659     50.192580276367693     51.616048708262582
H      48.909900885059805     49.779500625463477     51.520207010131010
H      50.536796405617530     49.599711145246793     50.175871650683277
H      49.479601381154723     50.155405841864265     49.323453628254704
H      49.314309875337109     48.493390017484337     50.346483914935227
H      49.641566409178424     48.553073262074292     51.489472682981919
H      49.924566876634529     49.780327902945338     48.930303668833325
H      49.240943970409418     48.608890538284342     49.862189482272534
H      49.310468932227764     50.552841956836431     49.642632133640213
H      48.830017978170225     49.887929869956324     49.692499299442950
H      48.859316459852792     49.523921576208025     50.155145902904081
H      48.749168816247916     50.797674241917633     49.312216817535131
H      50.612733598299791     48.880370227193374     50.092197551025592
H      48.894361874646769     50.758942000312032     51.788585948226782
H      48.299990420765511     51.217094440460087     49.823068814219916
H      48.643407720687520     50.636770046565012     51.042048473450009
H      48.472866073575680     50.287445165860419     52.064541082210248
H      49.072039692633524     48.609277671992828     51.428388405993431
H      48.431310578956001     49.186168604352453     51.095016779377211
H      50.926918081632614     50.246634968641018     50.136756847612745
H      48.926957844299160     51.554530814098030     50.197678495748491
H      51.389494064303257     49.970098851600270     49.820219059329425
H      50.940658970895029     48.544691267344334     50.585928576124886
H      49.333239268724540     48.064594570687618     49.879885150905125
H      51.368107268556180     48.842415284636523     50.924202565475284
H      49.536420987732889     48.232599725997026     50.839498920844839
