38
lj38_benchmark
H      50.000000000000000     50.000000000000000     50.000000000000000
H      49.369635245709304     49.827629035612581     50.304155397221130
H      49.315391925820855     49.712139348362328     49.583914757860228
H      49.525938426629224     49.230422990309322     50.128092224299863
H      48.954468838115787     49.724075087978058     49.221024407586221
H      49.828811332385158     48.786087234353474     49.653800676354336
H      48.781592801489424     49.427592652304824     48.777338373036237
H      50.249755089752554     49.296208310485525     50.016916906936551
H      49.732055584824877     49.494772789018832     50.655000075352703
H      50.616888403955237     49.318081270915982     50.478229034660743
H      49.139023530864051     50.350499988865160     49.131932803684371
H      49.338698687917237     50.862154014786128     49.490969514148937
H      48.877867640115106     50.521345807838472     49.845845313212280
H      49.099778295816968     48.934804742646691     49.387583668347716
H      49.412932675933106     50.795692701984350     50.154303635412631
H      48.510514586784545     49.920711569315571     49.888264285304231
H      50.562107016307600     49.759587530016269     50.747815513179603
H      48.572324550183140     50.810473692088898     49.116719206964412
H      50.362859430604132     49.630068954627390     51.459744327636052
H      48.013965686287158     50.644697788054330     49.519847388590470
H      47.593040351572284     50.329016255414970     49.669821519359466
H      49.322824760479364     51.378573245799366     50.485259399103725
H      48.366602665139887     49.164391969507804     48.279101788804432
H      49.018128372352386     48.635504690575196     48.959045461850771
H      46.847276968464406     50.213438267625946     49.545495954151953
H      49.158319512340114     51.224043405440725     51.202236499504544
H      48.837276449321870     48.979696422054353     50.186985001624919
H      48.525031453245930     48.632727883872555     49.543505970335850
H      48.153340684263689     49.961626412017644     49.116653267224201
H      49.790169841147303     51.248745567725727     49.098434930680860
H      48.006809485220174     48.584011965608298     49.164480281187977
H      50.537644395607927     49.957539795441924     49.729855009116562
H      48.884302802974574     49.253731570572896     50.674516785277760
H      50.636174513965031     49.767568435286357     51.893212799763774
H      51.188650885823215     49.918800278252981     50.845947740861895
H      50.951252138895285     49.165796768661856     52.001765512246479
H      50.324153349438724     51.361465573032426     49.610244680777882
H      50.915182096235903     49.044524601725136     51.520201836108868
