38
lj38_benchmark
H      50.000000000000000     50.000000000000000     50.000000000000000
H      49.787577143200004     49.471164549941982     49.619827658131079
H      49.301728215729320     50.187826772934990     50.121739628715574
H      49.938383603832335     49.156391180838575     49.164944361762643
H      49.477618347100361     50.589238152153264     50.762381560062387
H      49.524210817712110     48.511631652446006     48.971064872478330
H      49.344903340596701     48.826492045745660     48.520325846042169
H      48.864475562886362     51.106542445234751     50.813839636100184
H      50.061648655456509     51.070031386752440     50.745350848713073
H      48.997873068786475     49.370893487478078     48.742671937921301
H      50.389560371153024     51.286635830627539     50.339349234148060
H      49.579315598126563     48.590544009093627     48.117369819042942
H      48.241998875831456     51.045111407691600     50.941310781764074
H      48.991203973490293     49.104583501896386     47.987038949138096
H      50.118172198728878     49.638636685789528     48.783741625892944
H      49.961574681183457     48.273935357551807     48.002793526140202
H      48.854647556414648     48.300390523984738     49.115430558593310
H      50.213701382322554     49.946449513483493     49.433049155450817
H      48.829188565530799     49.841683231037109     50.610955301150540
H      48.710294797991963     51.058881535398925     50.301176295938170
H      49.375602687749392     51.476100300350041     51.079301533773780
H      48.395124004568395     49.503111917463947     50.637961413614022
H      49.680158709966058     50.608041863227214     50.086822331186639
H      50.656561225052563     49.560080755929484     49.733155317388480
H      50.072030195476813     51.770152213673079     51.182500232253311
H      50.203599483262423     48.843216948393817     49.751981067751288
H      50.264224198613945     48.227372434664524     47.327753482973165
H      48.322948881155156     50.512495269385035     50.961446768282833
H      50.247947130687365     48.679349351523612     50.276058321122804
H      50.224347939437159     48.230036376749489     46.527186558238917
H      50.549241920467566     52.243182754441477     50.864942600921040
H      50.976568447113856     51.577957477688066     50.233549605998462
H      49.881673041429750     49.887109202463009     48.324300263192370
H      50.264036075446903     49.309768563565186     48.188178476450140
H      48.580874569089517     49.520138641819678     50.077994386354021
H      50.141197341182448     49.791734304249260     50.505068243085418
H      49.293467882605960     51.609359806790025     51.656848584237110
H      48.973950215300476     52.201322532114098     51.289622525204621
