38
lj38_benchmark
H      50.000000000000000     50.000000000000000     50.000000000000000
H      49.278871707508166     49.998808716361246     49.911900501579005
H      49.078673873083304     49.829716690981193     50.376715552488875
H      50.241646817876031     49.926086549620706     50.577281894832545
H      50.380769916887402     50.479089921352042     50.788808020482008
H      51.005812729550122     50.688516964996950     50.592524305341797
H      48.448941493651624     49.697819601867714     49.984797491350790
H      50.236479621651050     50.478653878077417     49.725880201809360
H      47.887746688460794     49.468380375433547     49.948604387663451
H      49.992221708822292     50.836275647868497     50.699819061217397
H      49.367200967606479     50.845199650090066     50.394826596142948
H      49.336824934577933     50.271087266921967     50.773360928652757
H      49.891597438377858     51.043725446376435     51.141828477582649
H      48.773258285329923     49.874893995598995     50.936096333903407
H      49.848201287209093     51.804155028815813     50.960481223252081
H      50.260204770924744     50.115811937831246     51.137590141348959
H      48.878712045848594     49.528419360794487     49.724413608310499
H      50.599396571735440     50.915536326835664     50.008567933712584
H      51.048772911359791     50.586846439703500     49.532132691997539
H      51.016327888348322     49.800828689993253     50.487714432933544
H      48.677114632592065     50.214456069394970     51.628855402308176
H      51.704469867944781     50.545410334209357     50.592928148126298
H      50.293561655416148     49.425705986616769     50.691842646936337
H      51.338939079304076     51.161919631268205     49.946542604050563
H      48.439250776993276     49.522845819489653     49.306604422087702
H      50.545850779216366     50.930077744583677     51.055216846476746
H      51.463477961308634     50.217885697147736     50.923896261963257
H      48.498292611852612     50.324409037783710     49.685247841190275
H      50.983325656083430     51.772296809840803     49.840536752413541
H      51.413389164757611     51.533683229679156     50.588511699192658
H      51.503283842684894     51.693500603011799     51.140956808326202
H      49.311451061884902     49.621832333537746     49.125581943209859
H      49.328735478471962     49.892199452449205     48.515778857062763
H      49.884429873177623     49.176740294808809     48.924438213967854
H      50.298480246266934     48.648867148480313     49.065706332166009
H      51.450439278684478     51.826826839963587     49.577735070183316
H      48.131342687222322     50.493068131163980     50.315242662692711
H      49.684477230597572     50.505323964486671     50.164292241815772
