38
lj38_benchmark
H      50.000000000000000     50.000000000000000     50.000000000000000
H      49.965175958686487     50.078050471368982     49.281986219190692
H      50.056055220603739     49.845726830411898     48.741299946624849
H      50.670512054297440     50.313506466372452     50.049174745556250
H      49.245174634795276     50.415073311510035     49.371430411573755
H      50.163731667215870     49.124371351269694     49.056970812606451
H      49.017778039337394     50.854269909527702     49.840845068566964
H      48.975886747208470     49.872066413687726     49.165149889836940
H      50.639043410896200     50.344219735639555     50.581084863846264
H      50.772191303623160     50.611342118425014     51.229721175516559
H      50.365232408372222     48.950388585427774     49.595073444369362
H      49.574824393143885     49.583805073069719     50.320549828731025
H      49.870295754942987     49.264869320537379     50.808496192040209
H      49.470464911293284     49.851992167760571     49.816152271302357
H      50.954926706480840     49.982836705293415     49.654717724736969
H      51.431495887186827     50.451043020794899     51.072515504430399
H      49.889964479816939     50.545747599156904     48.719622625109373
H      49.053310187927536     49.268561631746635     49.034608519229700
H      49.242211908331981     49.387066061433046     48.337755946940739
H      48.576575801411870     49.362262237381863     48.249042558916315
H      49.207093948218258     50.783126120615940     48.951650407204134
H      48.802992028945518     49.696067475106979     50.270146710981081
H      49.122499282841673     48.641918172114877     49.128093725734466
H      49.186164703645751     50.178322744998987     50.613477140087191
H      47.959879416208466     49.594332359623586     48.309313607341828
H      48.153897263270380     49.044338035341191     48.831123921750915
H      51.649903639886595     49.881514529228902     49.680373453232107
H      51.424754244571290     49.857140495602877     50.587509963076947
H      51.414966119531385     49.121632524075920     49.578955175324651
H      50.661028552188078     49.231812243835655     49.292352387938301
H      49.147019172002757     49.891328507610943     48.699610985021515
H      50.670415782979923     50.143065248513132     48.323553799386843
H      51.034042489654681     49.609363046201622     50.991357945815565
H      50.406249457707588     48.343268432685598     49.733480590168192
H      51.473150524265122     50.342010951700125     49.401260209002139
H      51.033400507036959     49.024742107942082     48.866070600846932
H      51.507478205177165     48.978040792557870     49.046814535663799
H      50.800626839016672     50.404662700097397     47.812552511336072
