38
lj38_benchmark
H      50.000000000000000     50.000000000000000     50.000000000000000
H      50.392109580054040     50.313451531696849     50.106645530652429
H      50.792838027349454     49.726915606117167     50.002690139100643
H      50.270308998971274     49.298563737220682     50.271331562220439
H      50.911863132254069     49.275071259630202     49.451363975156895
H      50.811885914745019     50.327824115855499     50.447137500908326
H      51.589097672891178     49.508220640477695     49.648276517718159
H      51.427452514861535     50.356721192231205     50.225640003775894
H      50.267172817071575     48.908456209201617     50.804904924802408
H      50.764250591908556     48.790083384466470     49.326913580509768
H      49.542101670400584     49.160643708707788     49.959410283182450
H      50.320589346646543     49.402997475664428     49.515782496855174
H      51.472733464857875     48.508556479516443     49.119504987846618
H      50.813102145124034     48.914012828396785     50.871014115992729
H      50.188931018902842     49.359036904295785     51.056803414248265
H      49.791060679272469     49.465575815860653     51.339150015286101
H      50.136158399343131     48.920201066918104     48.916458749065356
H      51.325033619369371     48.468524663891046     48.375556648198639
H      51.338033519549668     49.636266422176696     50.587388237684742
H      50.191400267010735     50.850049030400825     50.002687636631904
H      50.508401614394742     49.395782612726336     51.573008820016632
H      49.668411854005271     50.824153158229592     50.610738939037411
H      52.113792200028364     48.387266177108287     49.067215144544498
H      51.778200980318339     49.694799550084092     48.909311237765607
H      50.432316408398265     48.553676924603273     50.423655480307112
H      49.636430833145887     49.807315159556715     51.703958148186146
H      51.004528397228214     49.671506630719549     51.269221260534266
H      52.306004548597087     47.889410891427737     48.601903292430379
H      51.377000188818698     49.135435081280143     51.202603135418656
H      52.597241821653199     47.384768231047659     49.065077715711737
H      52.527367991154435     47.038818571141761     49.457673178212893
H      53.064404584620078     46.981348662420807     49.060404766240808
H      49.634273164332768     49.124239400150117     48.979486126187872
H      49.107625490044200     49.566451299992252     48.719246302159107
H      52.063499724323819     47.065325550574464     48.718996390943445
H      51.810369364494022     49.432544441784891     51.140739027904118
H      52.664172517455356     46.346313945172788     48.950781359946859
H      51.805105789980097     49.410406004084486     48.481358817158366
