38
lj38_benchmark
H      50.000000000000000     50.000000000000000     50.000000000000000
H      49.411175285329136     50.411637994463476     49.780143699050235
H      50.027516149941313     49.514312463345213     50.210576411676016
H      50.358204151714077     49.440775801601511     50.791340531259841
H      50.480968563066249     48.731135051387781     51.037666385577509
H      50.336105029204020     50.493978989928337     50.413549397113655
H      50.351054401082266     50.026027450271755     49.409203458841986
H      49.642934566534556     49.507058249022933     50.786691528703983
H      50.054235917196216     48.528369366454932     50.581577631957302
H      50.741979807269651     49.690806281498418     51.129858986915266
H      50.155912854866841     50.928698272903048     49.962289075221882
H      51.237650602991913     49.654817858658625     50.682115096647777
H      50.414032186532353     50.571385377638407     49.582366495228420
H      49.946729144305941     50.020457807734211     51.209458583645272
H      50.701954154022530     51.147339335378845     49.992010501741277
H      50.842833666682509     50.105957124538619     51.499676770027975
H      50.167122115291924     49.027707488887557     51.427818780316912
H      49.707645162273018     49.755589453228652     49.675666091946589
H      51.103858741101519     49.713795570698643     51.955543094714010
H      49.463575407474977     48.505563753773679     50.896591805923251
H      49.874505122179627     49.717715768644474     48.900126963841473
H      49.600069179066210     49.014201794515543     51.895292525161764
H      50.237398760201827     47.880259468650372     50.553907860129819
H      48.804060520184414     50.332985934880405     49.901589353923399
H      50.504155311810862     49.050258472315392     49.985001352291121
H      48.749571009235090     50.282544074944752     50.479181527509247
H      49.987304687166343     48.952116309996207     48.799578390411355
H      51.366355450592323     49.224205839181849     51.761749633166211
H      51.294002690259447     50.336392005364203     50.325147243129962
H      48.723216194177603     49.526771201174583     50.663407787130367
H      50.978948257610938     49.066484153568780     49.458425478819734
H      51.809890268701665     49.438366809229365     51.939483199769128
H      49.353764342992477     50.497673098278007     51.221524689968277
H      51.012529534439430     50.054398472809218     49.728534445778472
H      51.004385085853222     50.765127649017103     49.367848047045129
H      49.838604315388082     47.216605386097527     50.438947787576303
H      49.909925935581938     46.844939108812284     51.032882565231027
H      52.404251557999551     49.346336591191680     51.797375210201892
