38
lj38_benchmark
H      50.000000000000000     50.000000000000000     50.000000000000000
H      49.682228573050914     49.927253944212033     49.440268214618669
H      49.593286328654358     49.752143233641192     50.139799677120322
H      50.237594698561303     49.493309274581222     49.904392801721137
H      49.093359492036399     49.921514930355784     50.135977318475433
H      50.731980588218946     49.832707414458120     49.623425821851455
H      49.661011110866880     50.512763295855301     49.384890044088245
H      49.593778890164124     50.964101313307772     49.006623524018174
H      51.054763028574861     49.633864779194091     48.920831310311620
H      51.147033115797079     49.069945971106520     48.966798108987042
H      48.885047939166007     50.297932030488425     50.429061288208757
H      51.455511740507227     48.537926721706555     48.841875412298158
H      49.417247275706103     48.985013609649542     50.076302285156579
H      48.960820745800788     48.950172207612546     50.672860980683033
H      51.254856431366491     48.867797537895335     49.598116146402504
H      51.936599626720465     48.089994064914642     48.410073423245464
H      49.273708892536455     50.766416436659973     50.282626033395523
H      51.406673243163731     48.961014994063945     48.265480312326183
H      52.030990190098571     47.732149923513262     48.850709046968902
H      50.419940369805168     49.934545046431538     48.717608392607211
H      48.505686899823459     48.471083208432340     50.809785095400692
H      50.790801452996618     48.695959586515478     48.074180331643447
H      49.077661125918219     48.252477476138594     50.982917953546306
H      47.872241737576175     48.473902722149127     51.178247183385437
H      50.342586551064585     48.340890311712293     47.692964199839416
H      49.966943814341569     51.188288107257968     48.339998906908633
H      47.863761051718576     48.536429346432975     51.671291420041719
H      49.008114232267729     50.690654444848320     51.044008108154920
H      49.451003311618557     51.572878472936765     48.389253952891792
H      49.788761990040804     48.370249454248501     47.641959968036886
H      50.629479083569919     49.761918967883787     48.237758150123618
H      48.469647811035891     47.788065839434267     50.685404859786246
H      48.020632074802862     49.017814569135361     52.021045057019172
H      50.253664237402781     49.790502049058198     47.563084360908036
H      50.120467628910340     48.793008696436502     48.160740006503346
H      48.827278880849732     50.619315590518632     49.950509600848520
H      51.146653164781213     48.174306342317088     49.834070808307494
H      50.093857419114471     49.441577311469487     49.203889947169017
