38
lj38_benchmark
H      50.000000000000000     50.000000000000000     50.000000000000000
H      49.612336278542408     49.840232251430486     49.723432432310986
H      49.788481375105690     50.454307346942095     49.773538494258233
H      49.485870431492522     50.499549959047023     50.370025554957600
H      50.425443150726224     50.749583865181009     49.824481919956796
H      49.094829668707874     50.126259919160425     49.184891282700043
H      49.023806009950000     50.181670316898590     49.932490242687877
H      50.662048472914606     50.105900213126688     49.969753620859457
H      49.289118405105512     49.593854049180763     50.048288577933356
H      50.871040968064477     50.434612669317680     49.625545869610626
H      51.266659559090762     50.295431407267515     49.145544834341983
H      51.001108001227919     49.631681796042066     48.971525466569581
H      50.728263151853184     50.197537467423203     49.174006087246312
H      50.195655830726317     49.397357939989860     50.120561472599064
H      50.188085033234955     49.542109558971930     49.523243935457522
H      48.834025420447439     50.172278207302128     48.724140407134037
H      51.032328438310714     48.869407168071646     48.819950042330248
H      49.002370899104108     49.320645541403096     50.485746396337518
H      50.668038027451182     48.787662154029370     50.325019906069116
H      50.980339720670713     50.353457810926919     48.671906745837340
H      50.668297650582751     48.419768656603587     49.877607025366650
H      49.277720888001895     49.949138279148912     48.719275585458576
H      49.400890604262166     48.710802541818133     50.640008471285654
H      51.329050704654783     48.411543515215037     48.662360633975503
H      48.664488415164996     50.786812984045028     50.250675617404013
H      48.690563558071716     48.403498779977546     50.507605772088283
H      49.001629412875339     49.141856973354955     49.579589320082903
H      49.748143169680660     51.085329098833050     50.845404300112790
H      49.278720304519020     48.683049713608149     49.520820601048172
H      48.495419389822999     49.809634400944297     49.408530054604149
H      48.411404924796585     47.690587631091596     50.314520982660554
H      51.727605222102738     50.224948020820875     48.549485724842178
H      52.202680438170304     50.113615432758756     48.111504539896941
H      49.448615264307804     49.282747915181112     49.403914167299412
H      50.310364077472805     48.931727786156905     49.216350701515005
H      48.679653707013671     48.669712814199677     51.042495085622775
H      49.933847761497177     48.401250709873381     50.737008435426503
H      49.851060762131695     48.490154117311945     49.611210601342108
