38
lj38_benchmark
H      50.000000000000000     50.000000000000000     50.000000000000000
H      50.733552130760039     50.014965920449853     50.327186143892149
H      50.247884878064085     49.981096279706094     50.755323905527256
H      50.402974324059549     49.434937436130419     51.257207783409115
H      50.735232478513041     50.230573438076085     51.154062703903541
H      50.967070242471742     49.641644298788563     50.933994629509257
H      49.743276629364459     49.651144974298127     49.383345427098853
H      49.590502310679845     50.591913766033741     50.131003681535667
H      49.622435841231862     49.874758776136161     50.848499995733192
H      50.356914118166316     50.045517465552450     49.218540614039753
H      50.706530889138541     50.916058119390307     51.310810878951244
H      51.109920355533767     50.079930131645952     49.447156450007732
H      49.486957485620110     50.323449298581480     51.104601758524048
H      51.467544235977897     50.142878250769648     48.951107949492716
H      49.791578601854042     49.624515346614139     48.796274659258991
H      51.662947577123568     49.654644972394713     48.344846407791053
H      51.636565018158635     50.635835403738383     49.037984050486521
H      49.225493073366131     50.557443369367270     50.549587917950362
H      49.366876841344244     49.252593422142837     49.059108336285313
H      48.853251747515529     49.035078756623115     49.584558204817945
H      50.338735110597078     49.204564374806679     49.498213362524133
H      50.309390132621118     49.519956941850722     48.877126793728792
H      51.706304722598539     51.406969367285711     49.216791712190329
H      51.006726404236538     49.197483497714458     49.008003299716670
H      49.713236185959389     50.175046094084173     48.758343300865782
H      50.467813201249641     50.124435544139089     51.600873750198645
H      49.678482096938751     49.000367823495601     49.411986715134084
H      51.188116995193688     49.767192715659434     47.941945685631126
H      49.547785737294681     50.852481688589130     48.911341213074046
H      48.563296186291900     48.509985995906248     50.093486679683025
H      50.280658935946015     51.201314637376306     51.152321524857562
H      49.519963999133395     50.205458833068263     49.477400416317394
H      51.059476693118825     50.834823709420768     49.421656964158643
H      49.389721909986719     51.333609178493440     48.840360065002564
H      51.374336998914700     49.874138714864088     50.501310548849204
H      51.804344711112130     51.169439389855029     48.707328196963161
H      51.701183197132295     49.489107873171214     49.895452581588657
H      49.174385962636599     49.686777189351467     51.334839335428697
