38
lj38_benchmark
H      50.000000000000000     50.000000000000000     50.000000000000000
H      50.367429511616848     50.418377827205845     49.890166674018737
H      49.903425671319184     51.035957535922279     50.111425224181716
H      50.064160114748816     49.443893817557772     50.142656630612059
H      49.444578631076304     51.275197965969078     50.455260759193187
H      51.003881828299058     50.001806211069812     50.011743772106534
H      50.001843367799445     51.235241721708256     49.563282559685923
H      48.973163331140668     50.640240503817182     50.479408392818769
H      49.158350578354231     50.182941366161543     50.198470557191349
H      50.441570757036963     50.965548597773271     50.218175475700953
H      48.980672853893871     50.596724560879366     51.244404691482053
H      48.797238737583925     49.918768652934524     50.702559875817194
H      49.816167275463343     50.169705742687668     50.486345110223432
H      49.083054963540910     50.304001605162284     51.761782303211191
H      48.449124467761365     50.692488914597412     51.872301349059441
H      48.653551276597355     51.295506197549813     51.643114754066147
H      50.113856466580742     51.208421834909238     50.698215691109304
H      48.989623476965534     50.889781570019316     49.768962689890373
H      49.426152740465383     50.601799419309110     51.021095148453824
H      50.493414598331377     50.060783935829022     49.317404993219711
H      49.729024071204577     50.553949220761439     49.554252060561062
H      49.885757025186798     50.191304372898941     51.400775177605041
H      48.191718344261211     50.194390941327818     50.891714173292556
H      48.729993613333313     49.660507659099252     50.024633704926259
H      48.767845936124971     50.102069759245893     52.282396774548545
H      48.198183575147482     49.480824650421361     51.045361508119591
H      48.027560186453115     49.450854656508113     51.534063994642160
H      48.916140150167976     51.588166589393765     50.525789502503677
H      50.037730640802096     49.607207809782018     49.551251749010234
H      50.745316599562692     49.906475056919795     50.766708271522461
H      48.290586989788999     51.392272113859732     50.163879847774396
H      49.721570653140141     51.335289660406289     51.254875129251587
H      49.139523969628804     50.161438073419099     49.536097511538443
H      48.169801292910464     49.265841576263227     49.733822031506392
H      48.834067305964815     49.079257535939746     50.297856510757498
H      51.061220957390823     51.129921775878763     50.362991086436473
H      48.470514691064011     49.584086727934903     51.781920203784232
H      49.874121959610143     51.715448775269095     49.654426198160813
