38
lj38_benchmark
H      50.000000000000000     50.000000000000000     50.000000000000000
H      50.172630911869923     50.050824713850595     50.500347470161998
H      49.963289866111204     50.135866058862703     51.058550741308267
H      49.304839714405141     49.890978938777899     50.125644732082428
H      49.484132784116483     49.561570037640436     50.711238720547897
H      49.263269745222701     49.230095240783335     50.008641866104703
H      49.338132420761056     50.301282831152832     51.359785900459919
H      48.967657424902072     50.696903270244846     51.046441953712666
H      48.482046589612331     50.542195000484504     50.884035380970325
H      48.937998718720927     51.263273566636748     51.419122142170949
H      48.921440127809817     50.231829399482244     49.832258607081805
H      49.607016453181117     50.476837497957192     50.158693934474208
H      50.383901141929570     50.161391329531000     49.382170609014736
H      49.780288153051224     48.858863265625267     50.451014361906154
H      50.356830830117829     48.965095108434390     50.934676880562698
H      48.954383243026250     52.000012210015093     51.101470131764415
H      49.921127114216716     50.371868545200556     48.830721779754597
H      50.782038783203454     49.431616261877110     50.860199140660946
H      48.433539855737180     50.242449109691549     50.253671456438205
H      50.209104963628263     49.571742139332883     48.931638177020986
H      48.378756956590479     51.648655155053966     51.281510301372435
H      50.488710496751800     49.804283025651891     48.547353303191244
H      48.899227284228111     48.884884142563166     49.936628566746606
H      50.308868023172131     50.453241304230374     50.768038228179641
H      48.629804455993636     49.418223651247132     50.419460085185683
H      48.331343093608666     51.474407242260519     50.513179759622986
H      50.465785651617573     48.356583221985716     51.077203786861546
H      49.519819509479589     52.387770841866669     51.286028258027976
H      49.263666013188654     49.622077596896091     51.282586316340897
H      50.163266837296462     48.043587620562803     51.682689818519890
H      47.850098680638887     51.087790231964057     50.254217033521890
H      49.112974832154563     52.733629559571838     51.445818716734088
H      50.709043895231332     49.300957808009798     50.361864179900309
H      49.890363742625723     50.240865763844901     49.416245749447071
H      49.025022069776448     49.904626665748907     51.622048928510303
H      47.610457969105902     51.137305069000242     49.581534158835360
H      50.649992019451062     47.825326399611512     51.657150672299259
H      50.490905801076238     49.194142691332125     48.227361837753577
