38
lj38_benchmark
H      50.000000000000000     50.000000000000000     50.000000000000000
H      50.074201519030474     49.507607840578068     49.549000860623977
H      49.816403057826570     48.774265730306340     49.385632577885865
H      50.282419735697438     49.138624410585145     49.090914784248270
H      49.680195450220701     50.184425535628179     50.384372614074493
H      50.887190008458070     48.862701356110627     49.219530436156326
H      50.620755954619135     49.533259794475889     50.196163561642813
H      49.158352594133639     48.551872547485942     49.017188673932225
H      51.057239598607509     48.316982932077444     49.237868390608945
H      49.688321091326401     48.249205900444267     49.076792611716691
H      49.784135288327441     49.252972967794747     50.049247913499187
H      49.340197462374292     47.880309751367271     49.627444196437381
H      50.199799774836201     48.623047006404576     48.801171577544430
H      50.350036132838689     50.129344352981214     50.801368749131996
H      49.793893301506358     49.708422900945529     48.849118143408312
H      49.623397141301993     48.573005070159304     50.363762605977762
H      50.826707722996346     50.375025591595779     51.131391857341399
H      49.664635345617327     50.326349206669498     51.100373661282113
H      51.120345546415095     49.277880672405594     50.339485236668054
H      48.754374405034284     47.973736844600047     48.777681104585469
H      49.205315812126450     47.829291011563960     50.169812084608274
H      49.886552350198684     50.840366991534729     50.957567290499405
H      50.301115723861002     49.206637581869273     50.649574018510201
H      50.723768774722870     50.194397182500232     50.161854396191693
H      49.461942426892989     50.778094437937924     51.274936436816191
H      49.180027320736365     47.210483040003368     50.657421200268352
H      49.124093579053586     48.425265643667537     50.716468360796966
H      49.917830008793743     50.570895302766374     49.947240485844560
H      49.526686477618362     46.499773352925828     50.772690182177428
H      49.362225548666423     49.995078057122456     51.404290865793321
H      49.104760116230800     48.947450404176813     50.628545508595472
H      50.638052682616141     50.324563302782558     49.399233522712606
H      49.391420873027975     48.580233059058124     51.393051837992729
H      50.335266092654955     50.388403928785785     48.968514855967520
H      50.077277373472107     48.822440462365549     48.143606672067861
H      49.050466294871370     48.192737531917246     51.212217528172481
H      50.447403458326285     49.870149706561932     51.631594566552131
H      49.832186297718941     49.703424295839291     50.984416005582659
