38
lj38_benchmark
H      50.000000000000000     50.000000000000000     50.000000000000000
H      49.883984194034696     49.709412305993006     49.559081526909708
H      49.717446932532702     50.267002716172989     49.292819138005626
H      50.541304458416100     49.959345152698653     50.485293310936875
H      50.082887818511153     49.047060043032225     49.628974900243513
H      50.434299678484450     50.641570286796544     50.697084900930875
H      50.325586807148227     49.268661802218524     50.005191671287996
H      50.240097459168865     48.454377148422758     49.843441732490888
H      50.666205390926891     48.928973883758673     49.553691878126379
H      49.523317495328470     49.845543179250100     50.356881859817953
H      50.310954833231854     49.542941986650078     48.988045989891489
H      50.607157108311796     50.026669055291364     49.573549447877795
H      50.750340392105414     47.906876113934473     49.627314699724188
H      50.076535895014501     50.909290079412308     49.343466884168642
H      49.610336189100302     51.298948024619847     48.887563296521748
H      50.628763550800343     49.947489805685336     48.801616902142854
H      48.828644952513244     49.556812641673709     50.122315326642180
H      51.113243032975575     48.026283246631081     50.087204364450031
H      49.664282586861148     51.601934513225629     48.491077057913067
H      49.445900400973230     50.466204790602490     49.723371211717648
H      50.644374342626897     50.830741266711144     49.005180317017974
H      49.778611419953592     50.318604694689888     50.489141649481617
H      49.747857366696699     50.289085650132527     51.196609535746425
H      51.152262766584492     50.102187679953964     50.497939947962877
H      49.494338634818433     49.108734355884614     50.390621517615429
H      51.351107038811627     50.174346072075998     48.538859275132054
H      49.672312556278889     49.169777414586804     49.107378758706204
H      50.915183329746405     50.493037336656279     49.917684061045890
H      50.373118123035553     48.046290710237109     50.188859917775737
H      48.299667066963053     49.481087216582559     49.879011730256671
H      48.676656044348249     50.485518243832139     49.951479700202356
H      49.652772293145382     48.944734057426153     49.897977210141647
H      51.875687786039492     50.329038093130379     50.322232797314108
H      49.363331217525158     49.625151739312038     49.057954371274398
H      51.677151836043009     49.664991008298273     50.392436844550140
H      49.902508235514453     52.006611906207063     48.079831982273731
H      51.328565465553659     51.072636903860385     49.198197016959021
H      48.285781255244046     49.716600619003557     49.340990356322322
