38
lj38_benchmark
H      50.000000000000000     50.000000000000000     50.000000000000000
H      50.583881613191956     49.871802237046182     50.464124184735070
H      49.609951306155104     50.562454063543306     49.937817692803193
H      49.523989824495281     49.762529525541055     50.277344563085855
H      49.817338645029146     50.452349581282867     50.551837069861286
H      49.818931292631824     49.433994883466006     49.890479185812630
H      49.047745587274036     51.041068491664426     49.703028161812568
H      50.347999921085524     50.489905189932159     50.239372507885548
H      49.527347594611399     50.695109509849878     51.224080751742861
H      48.892750892054906     49.994018923545774     50.266909235341529
H      48.280828303430255     49.925216539375143     50.320617480277896
H      49.534232618940926     49.682011850577332     51.021688987467854
H      51.045624091416151     50.018314317287889     50.756273101797930
H      51.561564262536557     49.752548151187383     50.338937450566362
H      52.149367512278573     49.981773243223031     50.009586044652252
H      49.600797425126288     50.007487385958818     49.380553027782433
H      50.353279457653159     51.277309858252764     50.087743693571184
H      52.228467736292487     49.403736881443400     49.494486483677605
H      49.625000465778342     49.513870895177888     48.821633471823780
H      52.087702989254922     50.504857209923721     50.594305351843538
H      48.406128832389143     51.115306539795071     50.106290870802177
H      48.952656168902550     50.063018278362165     49.761421101780734
H      49.118061941145896     50.891315038239732     51.839078925684191
H      50.317460894080966     49.790542426048710     49.128763173773166
H      49.264234494346944     50.765182454477539     50.594763996270274
H      50.173544244389923     49.270303405962117     51.179342074483671
H      47.777362490005821     49.683298656746551     50.595717319822555
H      50.152079963159295     50.528191359356533     51.035653407065041
H      48.359630912616076     49.230292605063227     50.712037498755876
H      48.850683888955039     49.120675236609131     50.287853702930363
H      49.353470182201043     51.194121624760633     50.231430159718137
H      51.727632383056097     49.271894269370250     50.913781101876822
H      49.926487388924976     51.942144292169942     50.092392932529954
H      47.709855986193844     50.070929446768261     50.289358844831035
H      49.832871409986794     49.078062482578694     48.967735549922381
H      47.439296738554312     49.501521490000442     50.058235011415526
H      52.412946779356041     49.914038084419523     50.755880033628316
H      50.365334995900113     48.982137098600035     51.647344537578562
