38
lj38_benchmark
H      50.000000000000000     50.000000000000000     50.000000000000000
H      49.933232272519938     50.403759361405989     49.459745577711878
H      50.586669696602485     50.003143147332267     50.114719946229023
H      51.335877869159702     50.154473792724204     50.143079795915924
H      49.619826847713917     49.822230102750176     49.256748775690852
H      50.270994108114408     50.958265033630042     49.339437386879304
H      50.599977212644561     49.299366052097966     49.868738679511182
H      49.935474265731337     49.797507558924245     48.873922595055213
H      50.066995644413076     49.817299007819564     50.485462090202653
H      50.025891927045336     49.515476431857493     48.156411397841090
H      49.889842625670099     49.020644944096794     47.554326250469636
H      51.641685395053273     50.378338088008583     49.789903397648942
H      50.478018182712603     49.282052792996105     47.451814960704482
H      50.808534581177369     49.259532019647160     47.896134037669611
H      48.948079353609479     49.512303512436972     49.170634318548373
H      49.864818195289246     49.646357199779501     51.195158836955670
H      50.186323347383265     51.117383589912087     49.834614089282134
H      50.367061785615832     50.653057078585242     49.920564051435520
H      49.093581947544770     49.593752200738017     51.249425826697859
H      52.061377574279746     49.888210959963544     50.278565641702770
H      50.845935804860993     50.556213754623499     49.251004506400463
H      49.222316923763465     48.899708046427001     47.779251920160341
H      48.489359248823639     49.641841813421735     48.839917059910761
H      50.168164701002127     50.379911565053121     48.555884382558176
H      50.963720390719118     49.813058476466978     49.834698767805321
H      50.174009838661377     51.586305819327308     50.006802324304637
H      49.561532712040673     49.316610402564507     48.881238401369579
H      51.403328665795421     50.960309158857136     50.080639202353467
H      49.535995467350730     48.776659449680615     49.092020836834038
H      50.678873762215765     49.069090809118848     49.319725325874984
H      49.375819373016888     48.285841333736741     47.746142345909206
H      50.619175036925292     48.772688450807223     47.973588140526907
H      50.744550330189178     50.496322277823552     48.215572876748183
H      48.671044162535857     48.853320778723173     47.404163469056854
H      48.076153759076242     49.843507304408696     49.433869827804180
H      50.787622298661780     49.613747125225359     48.409038466130944
H      49.889219223147478     48.267726150444702     48.598476081653146
H      50.013470798406303     49.070389974860355     49.345460963938784
