38
lj38_benchmark
H      50.000000000000000     50.000000000000000     50.000000000000000
H      49.678410617898713     50.018164049905174     49.470513459904836
H      48.967992395893276     50.262016493296095     49.411796703138300
H      50.363802785785531     49.805369512518880     49.119886408912443
H      48.612775936314875     49.600367116305442     49.638215650551906
H      49.252052057294200     50.712347894054979     49.509007995925657
H      50.440530563121833     49.037459576849415     49.347995571459364
H      47.965763236256024     49.852215785789141     49.419974530490236
H      47.663016482416197     49.784002483656060     48.755222717713018
H      49.505806559830312     50.238074750458168     50.243813156616319
H      49.136261400376036     49.775449432043004     49.873470343714722
H      49.367125153722000     51.379379021875330     49.098103741972061
H      49.347806334498465     52.106582226840267     48.981645204338541
H      49.769718402080265     49.259444245426764     50.005634999998605
H      49.845941708696472     48.694001321788797     49.103499260970587
H      49.805987778189092     52.468652104655042     49.032632941607027
H      49.516866559417721     48.735877586791304     49.841353964997417
H      47.321230732550376     50.102952021555467     49.062895729954768
H      49.871332532475250     47.896956727485360     49.095454076499742
H      48.375349851418761     49.746667531426539     50.055175450288942
H      48.424274278391259     49.042585060891810     49.592437109988197
H      49.629374282504529     47.824757901173236     49.717904196180953
H      49.946779258781810     47.249057122638632     48.734022352860578
H      50.532039743283455     49.705376267415481     49.750675503210260
H      50.142217352895059     47.682346713184380     49.717802694999030
H      50.138021695384978     49.272062071143900     48.671064323289549
H      51.098036473141264     48.972980110674349     49.367235809411547
H      49.342129505247975     47.805657095397571     48.814925309938658
H      50.605348675150154     49.690110669992592     50.261098968407495
H      47.778309949337995     50.019303174015533     50.392027539854887
H      49.920108141388020     46.541424293075892     48.425913148803609
H      48.825166731390809     52.055991780267853     48.452397233323104
H      49.856144649307367     46.360289903382323     47.747356869902461
H      49.996342786820989     47.467240616858632     48.008047789505248
H      48.987701805014474     48.537480120568496     49.882671903360446
H      49.976405614327760     47.042763392732439     47.624001601072386
H      47.905019520503878     49.072644385558974     48.984347984180445
H      50.160379084165605     47.441564526599812     47.327908359351369
