38
lj38_benchmark
H      50.000000000000000     50.000000000000000     50.000000000000000
H      49.718795745374237     50.687119048874436     50.020888921039507
H      49.810730469984065     51.077737510145610     49.391951145402452
H      49.642373407449455     50.007401658675953     50.397098141769675
H      49.470839240532364     49.347707414496128     50.129391053328860
H      50.338562364947045     50.510127377946667     50.446016668564702
H      50.213839864840438     49.326556131723557     50.275937343243150
H      50.581838801696001     50.013492265176950     49.675236990109219
H      48.821077513227124     49.708586677971290     50.233596371770304
H      49.093190776846825     49.894401769617197     49.637615257109232
H      48.879119265188315     49.337669979659815     49.608842696086057
H      49.838431845076279     51.291637830151771     50.064627817916872
H      49.275756191044849     49.085395592899779     49.176344071380171
H      48.569870733964422     50.335760594089784     49.535646178329735
H      49.103748997930218     50.625870543006343     49.989811103806751
H      50.556814130996855     50.589757619134339     49.289789944743866
H      50.013292454633302     49.066458234392606     49.281371453033749
H      48.772227140357764     49.129483402492887     50.121288907561329
H      49.925238615720467     49.193193080373590     48.494911499891494
H      50.402335458912319     49.628428298136065     49.306785678604932
H      49.560732138499958     51.368862180462443     48.735513222271301
H      48.987636467912473     50.476349665638274     48.930154125521199
H      48.576989572110200     49.611253603892685     49.148103893182629
H      48.538316233587672     50.308634134040567     48.799980596554086
H      50.643470130489220     50.483485393213833     51.044598576841430
H      49.549281562133267     49.662153880302988     49.211438996478186
H      49.227267062529982     50.017480960971284     48.502046786983428
H      50.314008318433736     51.438066916002249     49.637439058215840
H      49.779313868025007     51.676346566673217     49.620259335721215
H      49.297790278091426     50.938796162682429     49.480090953292077
H      49.740269148823863     50.441422174575315     49.316885269546589
H      49.233246482784097     50.304275113224570     48.028575412085203
H      49.809142637976862     48.933505130875737     50.723048163580330
H      49.051784294586888     50.139964649027270     50.457657256175757
H      50.153869619867436     51.437950253075513     50.558970731308726
H      49.246461928676055     48.895422254600447     50.305391104067184
H      49.866280406760232     49.894058094923878     50.887359913122978
H      48.387753155739674     48.831566915793303     50.739862836236625
