38
lj38_benchmark
H      50.000000000000000     50.000000000000000     50.000000000000000
H      49.603778225050391     49.433292941634562     49.690124604458191
H      50.395082312523471     49.534870906634346     49.488475481136810
H      50.736504119262918     49.840676218715210     49.298717079292139
H      50.067299260106076     49.040812548961917     49.774421788286688
H      50.283486859766413     50.368051181406578     50.336746468422092
H      50.600383311538849     49.258959408723555     49.991526177400594
H      50.793355585681404     50.649182837665350     50.095504826180026
H      49.332956126574913     49.065979685152357     49.300116274235535
H      49.060537732238267     49.364701986326985     49.748214411565229
H      50.978258226350235     50.642020302576093     49.633175294248687
H      49.864843261290723     48.673676421723464     49.133362294361369
H      49.539512966916185     49.037271088859171     50.053044854037495
H      50.544366518975522     50.328368784304516     51.045083835258097
H      51.517651967594006     50.993501457026859     49.381415268168716
H      52.009838700041144     51.427565808393815     49.836738598483620
H      52.209185404161246     50.946651608795655     49.261133094787446
H      52.573564079924964     51.588636036597265     49.392206948820963
H      51.097860102838183     49.821301410305622     50.154226922431725
H      52.171825100977060     51.917204702171560     49.820628629301389
H      52.055346241873252     51.576421396748394     50.416815526790572
H      50.136853951225746     50.246785176648125     48.995587813512252
H      51.190865874130239     50.663642420651442     51.261629051434248
H      51.781176697980946     50.200195129160782     51.531779094081060
H      48.707786083799860     48.867470178960559     49.692416000398353
H      49.252514316633523     48.473324487998674     50.531918664623156
H      50.909620075028187     51.171553075587340     51.062837845117137
H      50.430557012610876     48.425677375972214     48.745873464042752
H      51.301707003866326     49.280290481531125     49.420564704646637
H      50.978508840411294     51.017414757838985     51.633508296904921
H      49.687545975405186     48.130173733522938     49.540161760631548
H      50.068220678825369     47.622147951925591     49.662803113622800
H      51.815933613083324     50.608945152465679     49.650353268976616
H      48.822461994964847     48.636449238110885     49.017305404207981
H      50.988310509364162     50.106700394356380     51.005076842414233
H      48.219156741328810     49.166086509958689     49.185981287250108
H      49.990557189362114     50.828142074366703     48.927802283223770
H      48.773220750699359     49.172585223805513     50.204644638557980
