38
lj38_benchmark
H      50.000000000000000     50.000000000000000     50.000000000000000
H      49.455063045370608     50.226848335828890     50.196763172900539
H      49.588178735261508     49.765890964536332     50.492457349695378
H      49.109550399352237     49.404505656058234     50.290282310503336
H      49.366800252006122     49.036606158640012     50.709468844908791
H      48.684959710272324     49.373868253252688     50.616075450557958
H      48.215771864922594     49.483737279108716     50.784855057339016
H      48.643710503680829     49.447790276663156     50.114551025018486
H      48.375639913991591     49.491861445667894     49.470742725109147
H      48.731667169724233     49.629422385454276     49.136706694355070
H      49.732211050681492     49.850961004453893     51.014653605033452
H      49.121774751579878     48.928027343426784     51.455531631522440
H      49.576742543940696     48.702788496652985     50.246309476796235
H      48.837860185345605     49.933215681868852     50.872298198026634
H      47.702645253465718     49.559409930555596     50.703613193443914
H      49.923777579153921     50.499555364796876     51.065122175707245
H      49.542040288196148     50.658709880875158     51.402644415082989
H      50.033662233516367     49.785231491834921     51.645537116504947
H      49.488750038202653     49.414415422532528     49.240048665255635
H      49.627257259095472     49.963701569156868     52.205581369608026
H      50.002649573220602     50.645985702339786     51.783138656277472
H      47.270151305849069     49.915016422292410     51.215422518579288
H      48.004014376524310     50.184549481149254     49.317864304395670
H      50.617139668949008     49.425775143181745     51.827024437128948
H      49.971524433888362     51.238689169927191     51.704221839575723
H      48.613559565096232     48.844757126355162     51.285959544467545
H      48.481410603243816     50.653842073547757     49.348174922264285
H      48.947270290665656     51.092766316189440     51.560333520167752
H      50.375966837908344     50.337577453401266     52.103385200240716
H      49.702157390474717     51.721937114108407     51.243760207228618
H      50.845460570737636     50.040208436336322     51.531937256710826
H      48.569156831099697     51.294828016225139     51.902252544992592
H      48.520922835552994     51.746495738664997     51.247048603707981
H      49.922309871736616     49.468867047194550     50.231599554793966
H      48.985556337613851     49.896585557523181     49.638024731184430
H      48.728947979531107     48.776894407171987     50.655502977447028
H      50.298749252084285     50.316538358337588     50.262058138386458
H      50.007027026687759     49.904330075251892     52.628139132442151
