38
lj38_benchmark
H      50.000000000000000     50.000000000000000     50.000000000000000
H      50.532508232984021     49.895383250663386     49.842659720416854
H      50.076897995247187     50.692211315451829     50.292905414500495
H      50.261782446040513     51.335346666062456     50.676828583248067
H      50.185321504057853     49.196773550410200     49.662376715791375
H      49.876557750951463     49.710764216182447     50.437004554992939
H      50.186180024062011     51.794380203710610     50.888489489255896
H      50.567172493884122     50.371225371619190     49.356158629484142
H      51.056476015170432     49.432352410220339     49.852287798540040
H      49.442882897433321     49.940003453274919     51.046430758990248
H      49.633253392200430     49.331270453014838     51.467497677962037
H      49.679979059370972     49.193324333800732     51.989836112858917
H      49.465075996595807     50.430546472160202     51.638723665601368
H      49.785909403624743     51.070677761591732     51.202293497352258
H      49.798396014207512     49.719747315443904     49.575681924017630
H      48.940714490393347     50.836024308764735     51.473557508321448
H      49.589003989109877     51.872865290797158     51.286015147179228
H      48.963792444680891     52.033291028563447     50.911926699536330
H      49.277484329632372     49.979730573337143     51.895495669637938
H      50.859031427660042     50.063164311976706     48.867517977849452
H      50.075787330444150     52.452322866767446     51.503158500357372
H      49.458250059139644     48.674476834185931     52.487892407488843
H      49.686081180805672     48.562857950912267     51.608617383519025
H      50.838910433988865     49.835584249652641     50.372696830162639
H      50.426565237390676     49.062037009651199     52.218004592844622
H      49.115717098618873     48.829535138506664     51.658771224859827
H      51.189172666959742     50.120368650792265     51.007538866387392
H      48.475332739615688     51.982812178234440     50.551480533496459
H      51.571275563387019     49.637861961044514     49.391871124510175
H      50.062112704418936     49.176016726025139     50.602526857243085
H      50.659594056290317     50.557972186028351     48.360583079161039
H      50.360473250104349     48.514882562493398     50.326608831937406
H      49.842658281202802     48.020465210621815     52.501919177978330
H      48.677395478053455     52.631390258221835     51.132437307506493
H      49.085582517653194     49.497384748875717     52.311700958949451
H      50.643729648666977     51.010611086819438     49.958441766527926
H      50.171687290858877     48.678591741675092     49.463589256169101
H      51.080064039835726     50.475437105088034     47.693955713057747
