38
lj38_benchmark
H      50.000000000000000     50.000000000000000     50.000000000000000
H      49.318134440472448     49.839065807378901     49.995960745534731
H      49.199160266252136     49.225254576451576     49.920275905916888
H      48.685275147930362     50.079413455528901     50.288363337855046
H      49.777240656155954     49.315005670053360     50.381255296496043
H      50.245394501359982     49.609234819476498     50.875554387331675
H      48.893508966950151     49.585007005809665     50.511967004348705
H      48.433659661251262     49.288943142815398     50.992409766387198
H      48.417543435828648     50.075523614875642     51.034785457315017
H      49.568790538619524     49.200804776620842     49.245783115811172
H      50.024930912666179     50.453781378820992     50.457600424311103
H      48.809182998010790     49.475395117459826     49.541237472227948
H      48.266708110980403     50.731646974872099     50.652776274700386
H      48.718094801132011     49.735668870543876     51.569255477172085
H      49.774425478806947     48.946391005167662     49.665107395329727
H      50.115475541506406     50.016991268562691     49.243359031344042
H      48.205586041783953     49.268624229895103     49.085364491026262
H      50.365917232844119     49.417771576114632     49.083870822290812
H      48.408350678368294     49.779335093766576     48.633751030361815
H      48.675419554028089     50.365949081075030     48.249771175149718
H      48.198160976625722     49.498156137347607     51.656476784792090
H      50.351650644763808     51.105732802706321     50.661408160882239
H      49.285826942613070     50.831928605015406     48.356518451987057
H      50.733690228032245     48.791654304334777     49.270239348508333
H      49.186131623951944     48.792739188697212     50.445981773933902
H      48.431685149113875     49.217527690938866     48.408174913199460
H      50.336552685108295     51.237790478499214     51.384133422029180
H      50.398784647584939     49.444560974861055     49.617371281784379
H      49.648014206135990     51.391897867653299     48.015363405542217
H      49.701729952894908     50.510977349102554     49.052875498584747
H      49.704676435886981     49.489628930993646     50.845309025760038
H      50.200111114167790     48.421966183146111     49.166117031117757
H      50.679968330908181     51.382811653093178     50.954906113315133
H      49.327918948768307     49.911817117963146     51.297334000231835
H      49.669142141573154     48.999719938146896     50.915349495313194
H      48.704417917126037     49.729909652055412     48.101599271848855
H      50.089492435421874     48.483681769259356     50.134739495487104
H      47.952576267577605     50.304847203876697     48.903818148902772
