38
lj38_benchmark
H      50.000000000000000     50.000000000000000     50.000000000000000
H      50.226111617531636     49.469924727668229     50.465469901504420
H      50.365639677491167     50.124756493283897     50.327424300411060
H      49.571276829990893     49.595104525140847     49.453085505910501
H      50.283093373601808     49.572530103070612     51.042298317730477
H      50.251560566544214     49.701614249230865     51.658153117993514
H      49.244979837721914     48.983714265640977     49.319391645903067
H      50.810025975222239     50.433262222804700     50.116904707650292
H      50.879311007530838     51.061626277428395     49.686638098627157
H      51.550798972324202     51.407538070038079     49.422069438454422
H      50.739800978519561     49.972127434300582     49.491145431935280
H      50.656056377720425     49.971334372210961     48.724132182746210
H      49.845293551833194     48.908921798958978     50.082359509980868
H      49.573203812521598     48.542906316666112     48.817401836437874
H      50.146968131354100     48.471952394655176     48.888011176138583
H      51.201964572896955     51.940002180401720     49.602133990383393
H      50.271346969907597     49.672919024949941     52.414028173575645
H      50.080762371685204     50.135371751196587     52.613916835720865
H      50.608367367863039     49.500496196298982     48.080309330429067
H      51.398556332821542     50.100778286040544     49.201513628659868
H      50.927398291246867     50.916426272565623     49.081987182752428
H      50.107931438955674     49.081125762396070     52.318371730524468
H      51.546640250141621     50.905639655811292     49.078815327758917
H      50.752244377512781     49.902744312373727     52.163944549609177
H      48.998590736468387     48.557263280213405     49.720210945193024
H      50.625655499328928     51.164950486361867     48.488272711458528
H      49.787899634356627     49.743954660015412     50.764311751976564
H      50.336273046805708     50.112669364016661     47.857430389646247
H      50.454549104880485     48.221950625677863     49.515033054080469
H      51.450059184988746     51.162615377853228     48.355834509146476
H      52.099496634957774     51.476985624664437     48.409342703982027
H      50.042891125079727     49.255318784990699     49.456213524538597
H      51.867136130576817     52.076744485430055     49.674722591325668
H      49.338035810533050     50.388852709434133     52.572237177879622
H      49.615698265819269     48.826552659118839     48.189175657311615
H      51.458388484963081     51.278132166028541     49.902360723566467
H      52.181337609620748     51.623567435173335     50.091907434617312
H      51.392730141045270     50.710121997207310     48.037377282245600
