38
lj38_benchmark
H      50.000000000000000     50.000000000000000     50.000000000000000
H      50.171031152897740     49.585793478102502     49.344021050315440
H      50.591666758227255     49.533297849319858     49.673327480650379
H      51.135095531657356     49.115688449004786     49.492644469746224
H      50.607485272290099     50.313910801749707     49.800156892783718
H      50.023452271751168     50.080480403747508     49.394417398049306
H      50.741146499296299     49.802348954290835     50.257044677568132
H      49.848814652617392     49.340679936862003     50.372846912894360
H      51.523372673959024     49.251341375856377     48.824521289112859
H      49.951834496999844     49.876996610029011     48.794954530351994
H      50.462720737046901     50.269389100750793     49.171611094602909
H      50.039748849534682     48.745501624298250     50.505222269333885
H      50.189166905638373     48.748697155775304     49.910189101640213
H      51.128605322953049     49.857139696261470     48.513417181763039
H      50.276911643397362     48.486368292050294     51.016271267288381
H      49.639863270746076     49.516948453700508     49.846021503990443
H      51.293986140551304     49.680779046276605     49.943326033242876
H      50.109322084393050     49.836770519523746     50.526198481127601
H      49.610340268805054     49.381162178298581     48.326616990396069
H      51.127917109942835     50.620098059900215     49.271659943210352
H      49.340463257100801     49.738003192007881     49.137051921832068
H      49.997168352880088     48.217715326151037     50.424680488368878
H      50.711301054473083     47.883410825321491     50.298809857305386
H      50.218222893769990     49.356452867767530     48.781113848467015
H      51.735011964534877     49.799092066120188     49.516919075831652
H      49.999190212230666     49.509158357884928     47.983367547222443
H      49.562853802577941     50.001374742455461     49.594703188371021
H      50.709464775343413     47.780960335588517     49.659503382685266
H      49.325713447622164     48.616755427612553     50.316842132495296
H      49.986955085868111     50.540745867346025     50.627179844186955
H      50.161657214681490     51.160853470745280     50.730851180995479
H      49.047071062886921     50.186945919171194     48.919732465005943
H      50.447068865484731     48.022004276194686     51.277450829727556
H      48.481680742996424     49.746971635388363     49.063789634582164
H      51.674700800474533     49.623044353132649     50.613395513031492
H      49.586126559208694     50.156025259587317     47.895685271187631
H      51.568109020874807     48.541440566680699     48.661955716102369
H      50.618631363239402     51.074216505572295     51.375234195364222
