38
lj38_benchmark
H      50.000000000000000     50.000000000000000     50.000000000000000
H      50.461022381016100     50.215838955860320     49.571232303165090
H      50.882087835222805     50.037142206322301     49.054731434155748
H      51.630308329046727     49.991846147612591     49.046848893174989
H      49.847322193489354     50.588631607808125     50.063365509750845
H      49.333442989090592     50.987912099860168     50.285709934814406
H      48.843418423812984     50.843675271500324     50.260690671835093
H      49.336632414138833     51.531793649554771     49.905581611713004
H      51.986972925930985     50.045596642007339     48.565471467567448
H      50.313326532268690     49.984251404118723     50.396874814535998
H      50.182858016474839     50.670501245816041     48.982202901924879
H      50.648939363335963     51.203422194999021     48.958846618702196
H      52.467147266398463     50.407959361628635     48.894539876686828
H      51.548920144544596     50.488725596575868     48.374362453768065
H      48.500705180162150     51.197565137178749     49.840527926073769
H      50.231576835939009     51.129146542905772     49.968768194447378
H      51.419971311087664     50.564462170047555     49.501521216285539
H      50.405340240443451     50.226242016998860     48.559613180680756
H      49.834421847029645     49.520020782952585     49.450010463104569
H      48.134880467746555     50.838939130564235     49.223755589078579
H      51.279670089489791     51.092624624474290     48.597935547609680
H      50.513402583475148     51.548998805258698     48.545287882997094
H      49.890012357770857     50.333393103184392     48.144078482634200
H      49.535263336851237     49.724420445341259     50.138139451141498
H      47.807859892207823     50.230351395704304     49.048889740213951
H      49.759492228166621     50.919385455244779     48.006844557379409
H      51.453424025428063     50.990508116419377     50.126299983975272
H      49.330885235448868     50.567947958215299     47.554745591943814
H      49.017949034792593     49.327731046512781     50.280274537047674
H      49.868086599396655     49.209002295188419     50.161997343420708
H      49.710670559868980     49.898376427588403     47.415954291785006
H      49.853014642524009     51.649955262816007     48.863856532730651
H      50.845872341582648     49.706644435341502     49.745942797991276
H      48.649762260651677     50.410311583005750     49.113770049237829
H      49.320622800105980     51.623685939371413     49.074189489609708
H      50.089354801199939     49.451451653775791     46.863871667894145
H      48.952592270890108     49.988458680050101     50.588096096023570
H      49.109392145919436     51.430690232541941     48.418129825160037
