38
lj38_benchmark
H      50.000000000000000     50.000000000000000     50.000000000000000
H      50.506046561962620     50.199285627640080     49.694328438780673
H      49.941189238527770     50.337106295686169     50.515131450795032
H      50.440451563057607     50.591213121845044     50.869362413447703
H      51.156232561316891     49.962905476243627     49.749168417469491
H      50.729479599281724     50.091402934999280     50.515652754216354
H      50.485891031016507     50.139161750042234     51.189735732955313
H      50.356830972357976     49.709986528907947     49.191363697559147
H      50.565875811673003     49.484591917876273     48.794929765579042
H      50.059163279878476     50.526318689414161     51.292740140969229
H      50.695882689904117     48.851367444560296     49.226662669298101
H      51.752070090181327     50.178067378318275     50.055580019531114
H      50.674413572422147     48.339098641333059     49.031805599146608
H      51.195321473356863     48.965315549921172     49.657776398682294
H      51.216711588072805     50.614493339593942     50.533230973582768
H      50.343202686867492     49.522553818457048     50.721237040517295
H      50.722955029130361     47.858805189295147     49.608251181641506
H      52.425595616386651     50.580499374282269     50.149264630667105
H      52.741959778304128     50.708470099362884     49.754410454285818
H      51.188548724144624     49.771964528642847     48.899121327524810
H      52.526995175622105     51.187441860159183     49.629524422324003
H      53.182200755187765     51.389935359037885     49.417145862181307
H      51.778100607712695     48.839844020832537     49.952874969080504
H      49.372927552897053     50.212543877707930     51.152187177483007
H      52.213078801944533     51.207281049789849     49.048256896508093
H      50.787153156060938     50.536559859267811     51.225403847472606
H      52.240754838744657     48.489713225375112     49.775649923584595
H      50.939246240458743     48.214159821730767     48.492382003148130
H      50.716544946418225     47.569051651108538     48.625525387243144
H      51.136653505719089     50.977638191358828     51.302673720956378
H      50.544444743584855     47.632788831422204     50.120319327452442
H      49.200690904257577     49.508401917571021     50.872443215972901
H      52.409189913016377     47.772278198524624     49.800762156997727
H      51.302447669994365     48.142278114688729     49.886760822347824
H      52.465017866238796     50.838369722266513     48.659490204480704
H      51.170755991595144     50.747707111245930     52.071288864357413
H      53.746356449887678     51.412937224507125     49.318349422650670
H      51.328725591299531     48.787233802878355     49.179966316817655
