38
lj38_benchmark
H      50.000000000000000     50.000000000000000     50.000000000000000
H      50.179725601110761     50.450906045379128     49.450847741205600
H      50.065142736169570     49.552525364468487     49.721105589646811
H      50.399077945866573     50.980733690515557     48.886208066364901
H      50.628005428253417     50.773317253366741     48.412757576654919
H      50.088389449216130     50.957103722171396     50.069276856936341
H      49.521602726569483     50.118682096234636     49.774865792675307
H      49.921636653502127     51.524863658107996     49.164521038000835
H      48.765510781019934     50.213809957707603     49.966344554738754
H      50.597563811089131     51.216273229972536     48.108038930518582
H      50.863839616605595     50.697256013996672     48.858638272533668
H      51.200731154926700     50.517115191383176     47.908065511839034
H      48.398545967235741     50.583752379853294     49.943553806937018
H      48.815943783541599     49.771979837424070     50.428086321240940
H      50.846257602626402     49.409415617377306     49.683367933851585
H      50.208327393263815     51.372774894543809     47.461917731712873
H      49.678404591893162     49.557371775201950     50.211799689218559
H      47.606893213692913     50.636801165291644     49.906975117404947
H      50.124432993883794     49.408624985932747     48.946286254542606
H      50.167991482098159     50.692188018401275     47.874719194581040
H      48.454657123452023     50.571730829329809     50.710882249358718
H      50.764103985512200     51.163813369269675     50.167609231130221
H      50.500259789665030     50.205569609196296     49.927942510457846
H      51.405965487203297     51.363854522925486     50.327205866182744
H      49.731256849275837     51.598694636153816     49.635279229064537
H      50.625899993260617     50.253861915406951     47.652108109347672
H      49.667013579633398     51.807049417457208     48.510043813846231
H      50.115342878545214     49.680863311863057     47.406435189301455
H      49.729556239259558     48.855748297373580     49.843924032702709
H      49.529369575251863     51.457854339722552     47.631951174631837
H      50.323182299651620     49.467855529000481     46.898683908339549
H      51.318746951297328     49.760120296862397     50.063533751302259
H      51.325534900742213     50.413929298788922     47.410470346634845
H      49.934907006366956     49.726162827543405     48.396029856881121
H      51.001033204870488     51.679595211048870     47.943017950793909
H      49.037496697935218     50.460059514325962     50.524594159845364
H      50.405233815926728     49.638567985844041     47.938118776106080
H      48.333963361870616     49.733918741990102     50.978280717329582
