38
lj38_benchmark
H      50.000000000000000     50.000000000000000     50.000000000000000
H      50.141022929497609     50.286894336417305     50.600672222039712
H      50.141006650464320     50.344238267637039     49.420490068540786
H      50.141650304207921     49.485709400794448     50.214458355576511
H      49.852796044376205     49.993540755204151     51.202338483792360
H      49.626841470999388     50.221453991248971     50.421105829337847
H      49.508111969722826     50.556697497478268     49.798613611904550
H      49.569287866065608     50.728225674910483     51.122050589961873
H      49.666676549228313     48.894887128276501     50.138928089609564
H      49.626653723041173     49.336114226676585     50.728677200980300
H      49.865012178813309     50.925504117916958     50.064582157857267
H      49.164622853085433     50.265532629076361     49.419301883699923
H      48.749988603249356     49.776501612742976     49.045384229554230
H      49.346887341462967     51.030349158567105     50.389005841472951
H      49.251641885316523     51.461755722983803     49.719494691158268
H      50.211231923114717     51.300839505181173     50.508350728146652
H      49.165829493807827     49.996743123269226     51.375866474470477
H      48.165662844028525     49.481246493633158     49.411929259413206
H      50.361658170841608     51.758738388383684     51.119312623273750
H      50.372009658157197     51.651717688609750     51.690108867264456
H      48.763288644171034     50.547036969099409     51.235358358085861
H      48.516319180184865     50.453767427535553     49.086635361555849
H      49.197483583385910     49.283135556418976     50.327787050459271
H      50.791764069541081     50.085142972851180     50.551951919157482
H      49.461822188335027     51.197877354837452     51.574072444138729
H      50.761482325372000     49.948276928906033     49.654414315877816
H      48.000622188919131     49.896424480116437     49.671310266844614
H      51.275149077953031     49.730712879933705     50.758858743565852
H      50.260489423371659     50.031714520444211     48.828017345400646
H      50.302596769746202     50.521706307703020     49.901366528847760
H      48.396993425056998     50.853957636845813     49.622597584768549
H      49.341861947933189     51.684870348877730     50.527041432429613
H      48.737669823003095     49.435673522132042     50.110251981974280
H      49.518957127215053     50.026439691304070     51.754554382737439
H      49.875438902579006     51.345139209895024     49.715912160122564
H      50.848838204862361     52.208672793380494     50.937052600951148
H      48.820317455402062     49.407191209680938     51.588819524941812
H      48.884023112749993     49.602724245504646     50.970879591567147
