38
lj38_benchmark
H      50.000000000000000     50.000000000000000     50.000000000000000
H      50.496816196964389     49.888077810524585     50.479710933097138
H      50.454871392413700     49.302930557294978     50.179059748114732
H      50.765899898463047     50.124574637164962     49.988679792063351
H      50.352102744704808     48.764314900776888     49.627247207709111
H      50.096122170503762     48.168187966021513     49.685801578318745
H      50.162269200043816     50.414498115366754     50.877581696824777
H      51.088012067054706     49.634490799237255     49.917334695358370
H      50.671183790160562     50.783239010176239     51.234345964782726
H      50.563831530618003     48.360870186574196     50.293911302019978
H      51.026574092521656     51.383471964759110     51.108276392261857
H      50.852272756967373     49.935634831861975     49.414394912738338
H      49.886703254635741     48.422422573090813     50.073507535287355
H      51.211173835899302     51.183485352164517     51.542042991524688
H      50.814590219788009     50.366603311597487     50.978687233618068
H      49.678729184340575     50.521983703358870     51.199300100847978
H      50.173101751716352     50.752675506052810     51.514792031060487
H      50.821319364499637     50.887130354676103     49.889555678614343
H      51.603656564508135     51.427089315033690     51.942102095289428
H      50.249597460391392     50.926477791211695     50.151844914754683
H      49.837207434175781     48.158461685843690     48.937120951971295
H      51.113418437542791     50.632565072925878     51.426844600762365
H      50.489898160805112     49.561796830007800     49.655728314726268
H      50.785355687112201     48.953650413378057     50.739242059640894
H      51.057727127459479     49.322988487594095     49.318423921231435
H      49.507489781137160     51.012241980501074     50.124994897314878
H      49.217924053592881     48.782134003292960     49.877203600046485
H      52.131473657782017     51.537941201879171     52.180148513903426
H      49.979059531849074     50.674896895085077     49.704027482312213
H      50.694958094915364     50.919234277698870     49.212719879814856
H      51.233302548422742     51.565154383373631     49.915207441008214
H      50.264563549915231     47.953347172684140     50.586291113524204
H      49.615660387285466     47.735527721392295     48.332979627726289
H      51.489782273015351     50.301992726498220     49.256590982594915
H      51.347767368619621     49.364415923885886     48.915104510666147
H      51.632723471595320     51.750916750533328     50.383789605632209
H      51.032900123851732     49.752213426350487     51.291969659175038
H      50.225390792365054     49.958373275771962     51.320645900795526
