38
lj38_benchmark
H      50.000000000000000     50.000000000000000     50.000000000000000
H      49.389820895261714     50.404585592084032     49.670251113161612
H      50.248875840263835     50.256992916797962     50.392028134350802
H      49.194372493774203     49.671811269367595     49.666686293145105
H      48.745917018072220     50.096488187859642     49.305154226775564
H      50.887352585856647     50.206365355614039     50.314199838372332
H      49.270181503592127     50.655088923645010     50.299880316957434
H      48.425666770757104     50.226960278386557     48.902955764433294
H      50.677307643206937     50.841661518120425     50.146168996007354
H      50.412163985749586     50.319907180122769     49.623041811164974
H      51.074338023215695     49.780941047282752     50.803618005798391
H      50.665340076911988     49.873850666785998     49.625882668588055
H      50.716360728497897     49.341031602544739     50.997992142461449
H      48.552587780409347     50.414935283327132     50.245053672325085
H      49.262923747780924     50.611952002715945     49.162068092346729
H      50.259082136966668     48.747831011390353     51.100581726194946
H      49.699490012968916     51.293241583354607     50.222843837507320
H      51.080433452404812     50.049610095688145     51.416923868203227
H      50.730393851816338     49.053972441605637     51.591985985321614
H      50.825910727104088     48.614902564135882     51.934574726214478
H      51.607257992063879     49.883414527379024     51.815400252304649
H      48.568106760647979     49.802342529184791     50.274909505979537
H      49.843992060748107     48.701874485322463     51.633388792177193
H      47.823738945894014     49.936580112665027     50.299960518903141
H      47.929000246117326     50.235857450064373     48.441866043743858
H      51.167648493913028     51.254277221111941     50.299657056730027
H      49.633928451035260     50.395965734649117     48.846319727073698
H      51.878177999314055     50.346683838702546     51.927504274749545
H      50.870145852483674     49.726355456008854     49.172886414571956
H      51.159651897968033     48.156445956853894     52.357397316192376
H      47.812793377549383     50.061654642549890     48.998466187925629
H      50.801800721949590     50.337032677940776     49.256559769330480
H      50.613744482256529     49.986504616511148     51.659634421840543
H      51.546314432101283     51.621265024803286     50.332027517150514
H      50.143741871899202     50.561606700897556     49.082284366779746
H      48.102976638362513     49.552932721815701     48.899605194490654
H      51.300097380551520     50.748964305321749     52.252389864406204
H      50.222395506108221     50.139000781672351     52.059209878523937
