38
lj38_benchmark
H      50.000000000000000     50.000000000000000     50.000000000000000
H      50.652987649384606     50.467006088190729     49.993984206207394
H      51.302591688228944     50.084400824287222     50.063455553082832
H      51.626675883358857     50.208631569315905     49.606872273329685
H      51.611650570751863     50.916938324465534     49.508126168708188
H      51.383892121105667     50.855273934539426     49.968978620243021
H      50.770965089797023     49.768628941495592     49.804995091929129
H      50.757321232967520     49.299601552211477     49.447056882021243
H      50.706236638033971     48.826662306174306     48.942335417248458
H      49.870960663744320     50.039743088472079     50.510680766945370
H      51.287635997682131     49.012727483786009     48.960829860821278
H      51.182226801376252     50.237250772448007     49.342322974561910
H      50.472929980038479     48.367831750767422     48.872811920664610
H      50.697185682484672     50.201969918451397     50.425275569884960
H      50.597917825391924     48.745030595884145     49.448716736102575
H      50.046986419077186     49.184277470892695     48.903728577434173
H      50.645228874693544     49.518349893374356     50.711269614303802
H      50.396232429147723     48.888279441866921     48.512892298580702
H      50.767208090477283     50.073846993379320     49.123320144577391
H      49.926048146110453     50.172795662732796     49.293537802815777
H      50.214217265685093     49.492466273923760     49.840333535138271
H      50.999666477647722     49.491756361825963     51.315754538065796
H      49.887189735844984     48.568789979017623     48.576897104461409
H      50.505927744402648     49.713965647811470     48.551111831503746
H      52.067645745107356     50.051834738874092     49.378360974361414
H      51.653109647777704     51.548814982806753     50.119345912256023
H      51.817264146006423     51.171915143468709     50.603735219185594
H      51.601131063315563     51.314099669542813     51.033879895686930
H      51.197914042793386     50.380220334173892     48.850279200477168
H      51.682108090530178     51.548502525098144     51.771905769938328
H      50.973344480085743     50.177086656914568     51.136327123092357
H      49.502654355919873     50.049666796029769     49.582313895130987
H      50.271313464844233     49.250501549595171     51.384912400025108
H      50.821048643828838     50.308556843560041     51.653957507659619
H      51.057373902081416     48.730001775689580     48.300954521027165
H      49.720576005712978     48.738919071417904     49.238104647409045
H      50.959978075025461     51.470978429779954     50.376946761210917
H      51.522413168950557     52.288793502745406     51.862384591927828
