38
lj38_benchmark
H      50.000000000000000     50.000000000000000     50.000000000000000
H      49.720988171297421     49.673221801876764     50.454941907707251
H      50.644653185047808     49.986835435273100     49.831499910051278
H      50.439279516612388     50.168457292019674     50.326550737421933
H      50.247359099087582     49.934726872590552     50.851271742665944
H      49.706675861235112     48.963787737079038     50.075250028833828
H      50.258332432012011     49.117728888247647     49.977199729731637
H      50.363704637735076     50.577370649044759     50.853244024158450
H      50.809504052816663     51.209500565964120     50.754146959579366
H      50.073535208479591     50.106364349879506     49.349263083047681
H      49.312937625106024     50.301538349816305     49.344473123917005
H      49.030757445616075     49.687381684852312     49.744897974458084
H      48.967805197236139     49.310581962535394     49.384801848220654
H      50.442079260953541     48.532985567808893     50.404675613139439
H      49.062176555621399     50.823530381339353     49.303949242611651
H      48.655935582759973     48.947057897620915     49.094195903531705
H      50.295147780844275     51.226795042191597     51.161243076377843
H      49.429615004343198     51.287603482107535     49.685852978089507
H      50.965340694411125     50.273057505130510     50.094168473570853
H      49.773322550630610     51.217808345440496     50.978652721612647
H      49.644035652177543     50.482308136426248     50.919341337374718
H      50.836430987513808     50.088145330981156     50.873001137982662
H      49.623042969738961     51.516846795229242     51.518805046565724
H      49.797388757585246     50.610110159803085     48.949917345184993
H      49.657133407027551     51.603149395610494     50.620389577056756
H      49.874680619445179     49.142464524770318     49.374503200747306
H      49.356631326479096     48.977996007121334     48.719067047477580
H      49.796117387765143     49.841857910560996     51.478812546335298
H      51.432116947381388     50.470549841598739     49.485520354307184
H      49.577773088796334     50.134375164748469     52.043453641271689
H      49.863950735079094     51.911195907846917     51.213191310991860
H      50.159921656068924     52.142790557404702     50.489676077768863
H      51.380732820215364     51.255959086333860     49.374251551728804
H      50.225832471330257     51.111209057490228     49.029825710968986
H      50.935429681475242     51.487101989605023     49.001978264191131
H      49.556498218284105     52.006731808313809     51.598961060537370
H      50.265366970875810     48.696767513300237     49.391827718654511
H      50.252881390362617     49.839182332557655     51.782636515024521
