38
lj38_benchmark
H      50.000000000000000     50.000000000000000     50.000000000000000
H      50.206387970061961     49.648553309092662     50.300854733547091
H      50.673117897419928     50.047102044295649     50.039821719562369
H      49.653623523761880     49.945623901657640     50.626358140021978
H      49.839680206538624     49.426520365157664     50.814749763571257
H      49.913688922192236     48.732237326359162     50.836596210716941
H      50.524478864732224     48.987123461159747     50.964893780729781
H      49.171055946199878     50.003810354869792     50.218142369310151
H      51.167354049509868     49.577062662217827     50.015436630071839
H      49.561328267058215     48.551105065291885     51.199861077941755
H      51.748972929530566     49.233045138362421     49.740604210182767
H      50.652927203480651     48.513874537302570     51.419570427561538
H      50.377415764948601     48.378143984977996     50.650726530965450
H      49.288517063882317     49.378606931921617     51.268993221731833
H      51.154981671436545     49.196227522933938     49.667000268348708
H      51.684928525620911     49.415209244149274     49.147096056146729
H      50.715911027851909     48.426029742690666     49.969774876531211
H      51.241362802241568     48.366369255502164     51.049818870800308
H      51.246063853443580     48.350856575111330     50.504861553732106
H      49.716823709198444     48.258677490292385     50.403891859891573
H      50.511071210197755     50.099841613131602     50.714433421035515
H      51.957929898250534     49.058970366503885     50.461459042833901
H      50.903563626968769     47.653903002738247     50.370075551059941
H      49.913778624668062     48.331758012395014     51.597744128722084
H      52.221863611462815     49.737007238586799     50.501485333860458
H      49.111791339318302     48.400396217610975     50.270823145778436
H      52.930015207857807     49.564747107332337     50.210962626590295
H      52.375439285511156     48.616855134383293     50.855289871160842
H      49.008967618535173     47.750264578446739     50.064166681275623
H      50.527846199996773     49.132354322410876     51.733779333184948
H      51.429006528748971     49.827442643295100     48.687857461581494
H      51.811725184622198     50.005256080339556     49.002871437664766
H      50.136077269547691     49.875548146315651     51.203720719506151
H      51.226541850681841     50.469817718334554     48.775779961046233
H      51.253878349930943     50.822805524148855     49.355245169967148
H      49.765854778261563     49.142072055771109     50.289377038774582
H      50.050162621968830     48.266359005704182     51.031985728733204
H      50.321932944828418     50.539573085779466     49.504395764999167
