38
lj38_benchmark
H      50.000000000000000     50.000000000000000     50.000000000000000
H      49.950700162374552     49.701304380943967     49.395224601892487
H      50.734391561985476     50.028156042432279     49.737049996827089
H      49.526461802379885     50.287315945476514     50.308254250623797
H      49.256279108164037     50.721090836605221     50.704758140200525
H      49.758902450434803     50.795853647184067     50.793297303824509
H      48.664224478230821     50.627471893858747     51.182832534257379
H      49.815194069052851     49.318070137829515     49.737631299992287
H      48.135129095968693     50.025596805706371     51.205220810991520
H      50.333800192488724     48.765748398358724     49.676765744578418
H      49.204210229381673     49.518273159763083     49.696124242483265
H      48.997219253090670     50.020138429993139     49.451717064763344
H      50.666102832916714     49.245688745693677     49.537502439940788
H      49.349860951137494     50.832868396892735     51.308852702458296
H      47.723711182327008     50.390349737316271     51.680107493819833
H      49.849636384560434     51.402904945335798     50.342536133027814
H      49.313309431258055     49.998155848726476     51.013799769336146
H      50.076660404832651     49.477227143399773     48.695666462935712
H      47.621731919829443     49.795944658446551     51.077531361533332
H      49.227014492864022     49.104196465412059     50.076270750481925
H      48.600117438698710     50.039138489314652     51.390955202071240
H      51.251486819854662     49.131608540524468     49.360649378208763
H      49.513594904794822     48.987805567217549     48.883453247326656
H      51.716965183864232     48.634188341031624     49.111188938610532
H      50.510580336761770     50.365546401130757     50.219661433414075
H      47.945394198582875     49.629227531036840     50.455077898643729
H      48.711621381775615     50.343119598725139     50.430631548771203
H      48.313568558418829     50.849540537840220     49.972424484611658
H      48.419446165950710     51.192702614756385     51.514165538482011
H      48.417491888964918     50.950630870797760     49.440011940145503
H      48.347032860329804     49.812016122878262     49.629904090506265
H      50.223797884202526     48.891618073004359     49.195054954469398
H      47.887837288073555     50.944707847215909     52.096378480906992
H      49.985318463697531     50.615352610604994     50.265726203074529
H      49.908767267238517     49.519096127064778     48.145660726321708
H      52.236071042112826     49.183676211420412     49.106746425481234
H      48.934173357652618     50.210220100930279     52.081091085947250
H      49.936787967920289     50.818971400831408     49.593036251828508
