38
lj38_benchmark
H      50.000000000000000     50.000000000000000     50.000000000000000
H      49.869824192155960     49.968817692817687     49.381985895592841
H      49.544434754908970     50.383387077230971     49.925760539367857
H      50.426541651345687     49.757079071902403     50.424134186304563
H      50.324920238348717     49.313282324664264     50.923508742806753
H      50.888716476301127     49.197983069122657     50.449441845487556
H      49.373304958098956     49.580469466182883     50.023427042605171
H      49.677480756922719     50.237742558109410     50.489159096363402
H      49.990659756200365     50.301950191316898     51.118934569590557
H      49.784059450449107     49.563134962470912     49.677568719503327
H      50.372010677948765     50.814184807764555     51.249949713085208
H      50.477721853104129     48.801459705261308     50.663607088142790
H      49.445004647819360     50.607082657736974     49.397198610569887
H      51.300283030831075     49.003757111233142     50.812819998648671
H      50.659030192001538     48.200176318319656     50.748776042317623
H      51.870450745177152     49.150322988524096     50.859934930618721
H      49.323702478860049     49.144018185152966     49.284022277363398
H      50.588365018456756     50.299436009423687     51.765949153141001
H      48.718129567071280     49.596381437113195     49.175173787488113
H      50.407249530391326     50.795440598847712     50.704014939204669
H      48.874708233536701     49.779372847937459     49.929108668418849
H      50.424855360079249     49.912077023189823     48.803327186415771
H      52.354745566707038     49.090055106924972     50.628879601415072
H      50.447243769999531     49.420323268094698     48.872088958235857
H      51.207863218852573     49.610722806325590     51.141942489424054
H      51.086113376271946     49.055601785261715     49.098330537039011
H      49.398491177833009     51.085204783147447     49.753879330075179
H      48.008695623876918     49.386802911093980     48.909384369097637
H      51.437361271436998     48.750199410253764     48.552027920042541
H      49.960755962554941     49.385544247536330     50.544434006372157
H      49.776835249486531     48.513467341906122     50.831193324374254
H      48.151698821827893     49.559349621194883     49.759193887040681
H      51.715764088573920     48.269666180322233     48.902550263240151
H      48.352822989175685     50.186811429119103     49.365854472363274
H      51.825743685803360     49.090092898257438     50.139319132445365
H      48.659282585709946     48.715012360431182     49.394704348521209
H      48.029125808321659     50.685489621066282     49.832542676533407
H      48.908729840080419     50.219816506272828     50.721662934533342
