38
lj38_benchmark
H      50.000000000000000     50.000000000000000     50.000000000000000
H      49.734023638442331     49.426916338156069     49.689711700392159
H      50.736096386664315     50.210689394836699     50.179460668867449
H      49.191511744434081     49.320382076864021     49.708324008400481
H      49.671199879088768     48.782923485881248     49.657688476057189
H      50.715898719017041     49.804830097908578     49.673635086160189
H      49.733208935563610     49.236149047870690     49.050668038852969
H      49.607810148513082     50.499752535149668     50.080156530118444
H      50.223000152415523     49.860938983647394     49.480135991274210
H      49.319906747860557     49.250025518078537     48.477245194087416
H      50.027608036178798     49.372488500100971     50.366969164006044
H      50.546700982672938     49.573266767386286     50.153222743636661
H      50.287171046522182     49.189817286096705     48.745776922845380
H      50.448065300487649     50.642933414173527     50.560839774122293
H      49.695213134420712     49.796302107953416     48.136907009646784
H      50.403887298591428     49.420301742975525     50.722600827326524
H      50.830065796880397     49.060365562341595     48.742910775730792
H      50.366178974688246     48.987310132418877     50.079284653002752
H      49.826731474860608     49.544581005021890     50.872629287673085
H      49.334111995910149     49.532559373288265     51.056298839435208
H      49.022564887378948     48.900719117161138     50.152978026887475
H      50.797548413068753     50.616794549677664     50.945000657247199
H      51.015012921111655     48.817798136077613     50.307225199447146
H      49.881098433881590     48.959058629408929     50.607744343565180
H      51.625760114989319     49.112739392175484     48.706850995045407
H      48.574976318774247     49.182853095743297     48.202520713888923
H      49.599483464758038     50.037455947285395     51.109997425133045
H      48.997755364675363     48.403758327460388     49.779450031267693
H      49.492840432312107     49.740203401211033     49.286456690717145
H      49.952295438960192     50.164043690175745     48.931499045969325
H      50.875992435374187     49.893563317416771     51.138211201120413
H      48.963804435260890     48.744648258884290     47.918145988380829
H      48.768375996394496     49.729843745293664     49.682978835963382
H      48.305126798751935     49.921709164322472     49.319198477047081
H      48.539304355284138     47.904915559181234     49.970052978024498
H      48.596036082530816     48.839043129695433     49.706768313381204
H      48.381692448552769     49.117360032197503     50.447951095882253
H      48.725184582481894     47.364834836884938     50.425883884921035
