38
lj38_benchmark
H      50.000000000000000     50.000000000000000     50.000000000000000
H      49.751481062163656     49.347343781063643     50.140897941554435
H      49.364854338662006     48.749984963584623     50.215168277975415
H      49.680576586534421     48.643234354465172     49.520678033986670
H      49.344748157005370     48.214123273200094     50.704814992164579
H      49.807016104232005     50.503289923045358     49.972920820569023
H      50.527692074577502     50.174204326187578     50.375885473876195
H      49.665712828929806     48.069151803004289     49.523268499460158
H      49.561951116726348     49.740090253584306     50.677663484393577
H      49.075359176412093     49.837099172942729     50.349056943934187
H      50.432442789643424     48.728076008487427     49.650582871747766
H      50.671843325544124     49.986039950415396     49.571315570503664
H      50.567446637837335     48.752867763547101     49.148610389108200
H      51.351720932719985     48.881833711119434     49.227631907826293
H      50.805598199083398     49.299961422067071     48.626269041153577
H      48.672919760549675     50.480790001368952     50.110938242861707
H      48.910920061616167     48.395582968651333     51.065593391038774
H      50.545652489017606     49.813403120768889     48.222209463427525
H      49.464507661536693     49.790509675333844     49.868603699365835
H      49.783441093102276     49.950173238669848     51.299346778018467
H      50.301500650899825     50.713256872246461     49.821297932185693
H      48.692575787765534     51.196767597389588     50.351434831985479
H      51.306805353511379     49.670783236495630     48.509336248027346
H      51.450049319612909     50.146499886744266     48.637152875352960
H      50.594581922389928     51.229186162955564     49.310946585527638
H      49.393358084170039     47.701225729803298     49.167563696308470
H      50.726896226708760     48.330840286616002     49.943950367413947
H      49.079799526670001     47.744445540141022     51.365688595706047
H      48.635409239509599     51.217128057203411     49.552070270379964
H      50.051412824981199     49.982465690534681     47.851380102603891
H      49.260891506416279     48.739106338103859     48.906108729186734
H      49.388662297428795     50.334432264680878     47.714736503916633
H      51.708066097272251     50.744842197332062     48.772748696898034
H      52.075894354519789     50.217588392592425     48.476014795572127
H      48.369798377155135     48.406243988116536     50.946598468771121
H      50.136738546784002     47.763437782179651     49.240877584463156
H      49.096630626118078     50.558061328476327     47.376050667527309
H      50.560881284893981     50.071423317993890     50.995099340008338
