38
lj38_benchmark
H      50.000000000000000     50.000000000000000     50.000000000000000
H      50.163949911437342     49.373622413342687     49.853229918535831
H      50.213037103762680     48.690330423761701     49.801732865803778
H      50.286057896303440     50.542034727064269     49.590399159703999
H      49.922823211376873     50.894854865381035     49.881696934507794
H      50.627366302946868     49.635422046793416     50.301601455293358
H      50.145286874414793     51.450760173153789     49.770594146163802
H      50.529948643036121     50.105674117498367     49.904059285917931
H      50.528353254303426     51.952671589303229     49.443402580973142
H      50.064252417166323     52.292825369617681     49.026417679103844
H      50.771949832249973     50.642739616462634     50.096231979828609
H      49.869413318437950     48.039647746195776     50.014038310150404
H      50.977212865215975     51.201180793411986     50.460544894622799
H      50.882561405191247     48.839934922659488     50.143738855074901
H      50.998690823580382     51.616800465955322     49.113138355919503
H      49.982007922608126     50.498984076250835     50.418940406303761
H      50.191726524622204     49.017726741751389     50.319615846697289
H      49.389900025373031     48.354805377678019     50.551762323006820
H      51.758270065467848     51.387282452250368     50.481269218598484
H      49.866778217338847     52.594869030074946     49.665569390487775
H      50.101953434879491     51.601068239663391     49.057907322300146
H      50.653725464455029     49.697298944302410     49.515780663167867
H      51.974485758944489     51.457443075888484     51.217337158445808
H      50.021067862739642     51.107656016902382     50.509828389059734
H      51.381352100783602     48.708791636074601     49.926984889645837
H      51.340918549378344     48.989454631735668     49.505840397904052
H      50.351053098343996     50.602241774921758     50.796809869228170
H      50.447018105650244     49.572759744024999     48.920175734121607
H      49.867732658971605     52.229032446347020     48.441774648404959
H      49.628284445916748     51.711542447877363     49.853654850935662
H      50.480816355393166     52.886134635871556     49.933094139720914
H      49.519003762637780     52.047493531924133     50.350039285889061
H      50.116576565675103     49.196830107691795     48.888210647637528
H      50.471942277185576     51.680781057785396     50.224570706876413
H      48.946712276221994     48.714139210155814     50.033116776136922
H      49.442025061559981     49.058741554294663     48.781465478790871
H      49.455977581335908     51.085765970141260     50.395671795065525
H      50.518340143623718     53.187437462400020     50.356709113222038
