38
lj38_benchmark
H      50.000000000000000     50.000000000000000     50.000000000000000
H      50.249543956483478     49.521998971287474     49.690366001938123
H      49.895399624353651     49.158306023528880     49.860731356780605
H      50.081920808104087     48.966151914464213     50.450738156259455
H      49.799925407495110     48.809703398551221     49.235087370305322
H      50.579710477399388     48.486977280899303     50.291553846998305
H      50.562546986924545     49.040881557907852     50.209228326574248
H      50.429633527205965     48.498243488260279     49.748120106387660
H      49.738522324292880     49.567826432480018     50.353911622841721
H      49.793896961140483     49.744042844134412     50.974631720059904
H      49.981289710092227     50.628155498162066     49.668991754065303
H      51.201327027173058     48.948271125886009     50.291683200276971
H      50.004021912414437     50.945272546994225     49.032693351610675
H      50.696133094263665     48.342009180200982     49.329127925400023
H      49.296338970076633     49.944034789829097     50.865502325650212
H      50.483083300496602     49.725331156520326     50.205854716016461
H      50.874707760987221     50.092824494695321     50.648893935950191
H      50.127825135657496     50.645462344814540     50.175664425730801
H      48.953937394425992     49.919889026789534     51.383935055187244
H      50.185064725026187     51.394604001122623     50.368025242669454
H      49.899309299174689     51.372169703873425     48.494188579924348
H      50.729673810034441     49.954470155543888     51.160243886654783
H      50.703818593692553     48.883801268888575     49.494003883581840
H      49.973822842484907     50.311302914108545     50.562842714710747
H      51.212928274024101     48.956530733739385     50.875450716784307
H      48.781663827258079     50.488025106660423     51.161268298566398
H      51.440871106490867     49.479018342865885     50.869322009703133
H      51.027726096347628     50.374840226733355     51.237948578952079
H      51.161930398838216     47.893075987308656     49.571130504277043
H      48.840791666359280     50.471118233788296     50.449034913185514
H      48.722378300109085     50.280233360042303     51.738201139448918
H      48.964143326687775     49.324506493454827     51.068454088034557
H      50.983404087932854     50.618937361114774     50.285727523503667
H      49.465927904571728     50.592420224840296     50.106903546659794
H      51.107846949787877     48.402843934218538     48.998944758011234
H      51.519419409024714     49.599141541295261     51.354482754581596
H      51.136575071761946     49.294892171121901     51.233705603593357
H      49.194333316785347     48.835288554797799     50.584443493986655
