38
lj38_benchmark
H      50.000000000000000     50.000000000000000     50.000000000000000
H      50.283515808467641     50.164178322531463     50.619221303259977
H      49.732021404180983     49.697135784629793     50.651747644626958
H      49.638238303101950     49.278565327015912     51.255253099834178
H      50.578749855415325     50.492968837453134     51.034055651725630
H      50.037703202637140     49.356226186965806     49.588009397232128
H      49.978755770230471     50.846960883789968     51.207112409603681
H      49.930974578191723     48.541198805462749     51.291578955337307
H      50.651014855315758     49.072673887870195     49.551329045480209
H      50.764308998779185     49.775704730601120     50.023791082612497
H      51.421199119445049     48.937532898059139     49.640726020410845
H      50.001713805340749     49.919046427716133     49.474171187735394
H      49.396200932952141     49.522775996323631     49.647740395795118
H      49.445175176426289     49.461636488527780     50.308328340244834
H      49.392878750926108     49.953054920795083     48.995875440135201
H      49.043012184730145     50.094486485197848     49.511971330528212
H      49.657980876662521     49.930407203867176     48.336471918230195
H      48.988298651193588     49.216676489715326     49.516233327201888
H      50.378801383482212     50.411100220931786     51.729165764096052
H      49.797099560809535     50.553290702739886     48.061561944359298
H      50.207638394031569     49.157227603599289     51.639734508069516
H      50.034330931616665     47.806695694518211     51.155972841018439
H      49.459612094874004     50.315186361205107     47.708573496082302
H      50.622118398433379     50.361792421159016     49.222595255988971
H      50.078199647706043     49.472813707615956     52.196236445881539
H      49.112520890377212     48.872690926327095     50.388089733179321
H      51.480588664279665     48.705146584849388     49.136168309802322
H      50.241038293069217     49.057647112582394     49.156272785248262
H      50.159560149202953     51.373843973304737     51.756891373138025
H      48.448045748875735     49.205779682044309     50.663317491630693
H      50.005661869909119     48.775573345577115     50.606971116732254
H      49.428398512623616     49.793575017401224     47.767978494042083
H      50.129241113828641     49.426548930983913     50.300216935107372
H      50.576750141418117     48.492657985784888     49.283544264038468
H      49.663956049632702     48.884763275744341     49.251164512872442
H      50.288474322206746     50.212049303771330     47.763127830740025
H      51.934321450508392     49.393186059329913     49.725787675129027
H      49.337978562945906     48.545736218953593     50.912253449350025
