38
lj38_benchmark
H      50.000000000000000     50.000000000000000     50.000000000000000
H      49.437014961238894     50.335066657372707     50.399708353422291
H      49.462571271441931     49.935830776935937     49.914785247078271
H      49.487348699838272     49.742233517067064     49.347651119089413
H      49.926844332981759     50.908066150805929     50.573604134169670
H      49.403377463159686     50.401234256428495     51.013161417649222
H      48.872082409988252     49.979284946611365     50.474948214185638
H      50.416248899943156     50.994203538690698     51.034285882040876
H      49.072611914019575     49.201732276610059     50.509277895240700
H      49.332491010977655     51.052558953680744     50.368742640631112
H      50.418589284040330     49.930076516750944     50.539997643346396
H      48.376146898032509     49.617308873724674     50.112824140691039
H      50.116411318180127     50.712774632112215     49.688341065234674
H      49.252549882735529     51.662601269830866     49.960725659959479
H      50.209024163839892     50.415519923832115     50.897234218821801
H      48.512031457299749     49.407115099809928     49.619947343142599
H      48.598888240139054     48.899377419202224     50.589907053679944
H      48.073600517737113     49.141481680693573     50.588240680495247
H      49.423283997907589     52.379892881389736     49.816505005099074
H      50.119070674324313     51.450675603805401     51.563775118782274
H      50.921631515778650     50.767465797382215     50.945394843005282
H      49.201525891949792     52.239597923365736     49.310565110572711
H      50.468706908877444     50.426791012968224     49.254584706911032
H      49.725511018079274     49.312916028629012     50.068326045583618
H      48.654997355091893     52.298312403313226     49.085354703854769
H      47.789611942532702     49.453504491343615     50.011102846213333
H      49.290955516480160     51.638997731866148     49.300154876861242
H      49.591593675806322     50.148299754902752     48.995671139994364
H      50.684797753501456     49.489009126500754     50.139583196053934
H      50.449218953228126     49.489741483438983     50.836813665366300
H      48.415754548297649     48.388795869443001     50.758297873091578
H      50.300127587306342     50.766933564254408     48.660083445621552
H      50.817208565398737     49.418576024679609     49.421956892982031
H      49.476001121482618     49.027853686210904     51.136966492761786
H      49.022725311574618     51.929822158488541     50.612083013136626
H      48.354566180169080     52.700081610817783     48.531453049453624
H      48.351666625119250     51.577916368084750     50.773406820011139
H      48.423031163104504     50.264295018505180     50.179425313006433
