38
lj38_benchmark
H      50.000000000000000     50.000000000000000     50.000000000000000
H      50.133123583231658     50.626881785723413     49.812760096141304
H      50.597532265794484     50.815748061142592     49.612724980588986
H      50.693788277682089     51.341438855151722     49.973819560293109
H      50.091735860490218     50.447061593522271     49.049699722656804
H      49.690874592318522     49.856711962166706     49.446574045073419
H      49.862179851468305     51.325990687480740     49.941920292679171
H      51.126896812334977     51.048492056431499     49.376803748734126
H      49.884370800901650     49.104718965855270     49.499171882018160
H      50.729998913783902     51.422514067945983     49.364149925797726
H      49.387762742382158     48.936233531291450     49.864008697143412
H      48.815246818317114     49.061361311483289     49.547248992875623
H      50.114556342738055     48.662037035874150     49.650454472985807
H      49.874631436346924     48.551686210773006     48.930459854223010
H      50.006679115516434     49.288768680360491     48.697176117252582
H      49.838030263876433     49.301507507952195     49.971096779693625
H      49.779557979902116     51.092476817741456     50.411205372429500
H      51.175100352108643     51.871298752200893     49.471949397273129
H      49.186843083761410     48.315726249232853     49.870852687218523
H      50.979756974103012     51.922352959940014     48.827078736588234
H      49.161070939574955     51.237984935603947     49.996091218422229
H      49.289504480866569     49.435465738177641     49.275857060145213
H      50.105120603683325     51.736052412971809     49.748280985785584
H      48.125470527152586     48.944079876894591     49.264204020056326
H      47.400039677498896     48.648732422327299     49.094319204787865
H      50.146756675289645     51.133233430664085     50.921890335729458
H      50.083084651518995     51.466276788494504     51.509689566959082
H      49.409711006865784     49.955438375609454     49.874476808034522
H      49.582629296303594     48.932733037653371     48.243972597557921
H      50.714720679978853     49.419678697337595     48.479474183099498
H      48.676173924720437     48.176256007385739     49.501639023021781
H      50.195954717599847     51.440000010832485     48.827231481917920
H      50.170666964920642     50.788989668409158     50.518299196042790
H      50.572905289529011     52.374238706104727     48.855367304107531
H      48.854650287371392     48.681305552557028     49.167183871812426
H      50.553159220512384     49.760613927488855     50.312746179495306
H      48.052426459333070     49.115352290781949     49.982518999335795
H      49.895506511993062     51.269127391669329     52.215780551906036
