38
lj38_benchmark
H      50.000000000000000     50.000000000000000     50.000000000000000
H      50.196647099362366     50.587559636361725     49.527458540140124
H      49.872496042582284     50.486406542177797     49.999446251988381
H      50.693009108039696     51.173868300722454     49.679302324462498
H      49.260298765659755     50.479956118897483     49.722297819231002
H      49.535585493266403     50.514093736007020     49.051247341085826
H      48.925868623256818     50.956499577529911     49.009353615165523
H      50.683493544719795     50.361570015592271     49.612058685705435
H      49.345401171290654     51.215848075309530     49.293745244655383
H      49.909751423676369     50.274191947069937     48.463820204148128
H      49.604128051350386     50.453148501681198     50.505630416672950
H      49.783967499147145     49.840763733895010     50.870370948261098
H      50.591773355695501     50.029364994597444     48.706253617424430
H      50.504766840274925     49.829905679522263     50.964078253963251
H      50.027870538414234     51.011470897324742     49.080291755455868
H      49.211088626493151     51.126255576506260     49.903255558028540
H      51.290983726784120     50.109016520346067     48.727350657136412
H      51.095793859704379     49.948354068847749     50.139593921056807
H      51.116671710702448     50.696061918078577     48.251917347226232
H      50.449624546157679     51.261382764547221     50.244674894281275
H      49.980191277196774     49.323295621604935     51.303226507387777
H      49.410719030632933     49.609678190888502     50.039441309355517
H      48.481009986860940     50.514025018351809     48.573666266177838
H      49.234271962895839     49.975033254349320     50.431843585259166
H      49.821599962684573     49.318110955454657     50.465173065704661
H      50.508163313127021     49.560165901773829     51.758268273065049
H      49.054676742608493     51.093487790977981     48.304123685495156
H      48.957454607846323     50.502028191089984     48.774825101616294
H      49.438445938568485     49.704200701705787     51.275354966553543
H      48.489758939198225     51.227300478312323     49.322545631658649
H      49.081735831606849     49.830731888171748     48.917694737070995
H      48.805142447352488     51.705612080155760     47.855146902526876
H      50.805795219132449     51.696587802238938     49.548521831832382
H      48.198127882709677     52.046825315021728     48.000949121046951
H      51.800950291015297     50.815334935757249     47.926076301991117
H      51.687159304189947     50.260378272294183     48.043213106714056
H      47.927878943857941     51.688111143972222     49.150649425979047
H      48.266617356392381     50.516375181147914     49.519970114284938
