38
lj38_benchmark
H      50.000000000000000     50.000000000000000     50.000000000000000
H      50.667750703887783     49.691577679811573     49.961615959919364
H      49.274817102816300     50.044395913872251     50.097422998858526
H      49.915553992822211     50.465180895783476     49.748704344202373
H      50.557499609515141     50.782797183026588     50.113648665751306
H      49.392623444251008     50.491407694478468     50.445995353166545
H      49.825780874211659     50.326367566426136     50.992306932541858
H      49.150641018015740     50.116371353731957     49.464183226578939
H      48.767967783771979     49.500897088770600     49.472953783257879
H      49.600140005715645     50.064082805474278     51.691205197247740
H      49.609995298347741     49.627313472425278     50.713243997204053
H      51.027446569900256     49.165002290217913     50.100414425153581
H      48.607583118162019     50.344895456436113     49.344708114920977
H      50.730035053677824     50.702800924912644     50.646025618715541
H      49.340928070733980     49.543317959864439     49.109195824291426
H      51.028293826761839     50.245724049428951     49.747146721700624
H      51.133123330551697     50.568126875974635     49.216128251390792
H      50.385224004788483     49.243635700120542     49.361982061745884
H      50.144819221227969     49.631120887616547     50.767892152648429
H      50.689253023963261     48.962763483614538     50.485751245155022
H      50.378747502577887     51.289212660696350     50.279705123905259
H      50.350626703155797     49.579222597393048     48.631637269222821
H      49.652187744266250     49.476932218578391     51.683360893231956
H      48.270076175838810     49.516790051975093     49.501636356964028
H      49.935440399278555     49.054751891205584     48.593080729872241
H      50.444974591999170     48.886038792936908     48.877914916961828
H      49.168866741078972     49.244477701421594     51.158946522158253
H      49.087384954004015     50.132925283987156     51.157997556674417
H      51.245799294768247     51.175973860402735     49.596664311010066
H      51.157152379820651     51.161216475182272     50.798767368521339
H      48.983857871155394     50.581704093453304     51.603154585167857
H      51.501503417967726     50.590063277760343     50.512383047059458
H      50.790788507820601     49.547981231202719     50.537172497630429
H      51.548585538660390     51.695949479824584     50.476592521610549
H      51.138282439876605     50.876659463231647     51.277528809686025
H      49.469554624840164     49.087256420225629     50.391602163374287
H      51.217470760801177     50.655436247646520     48.643872782326447
H      51.132403135158491     51.915014907348869     50.670727794332329
