38
lj38_benchmark
H      50.000000000000000     50.000000000000000     50.000000000000000
H      49.767104089137796     49.286059780844866     49.791531541731267
H      49.429117431366045     49.660119845188532     50.432839538780676
H      50.735057377692598     50.080788912233295     50.145121917537310
H      49.830940299230065     49.332168275535501     50.803713323785949
H      49.959358347491417     50.756607502103641     49.991269531672074
H      48.805484623570926     49.688361480787577     49.950934946980389
H      50.261457255735692     48.750062898298168     50.758651678638358
H      49.868462355264739     49.554819251029251     51.512360024246831
H      48.847238912743386     50.334456084923175     49.535933770065476
H      50.222731656366989     48.655271439495117     49.624331678605536
H      50.759678190316116     49.028169906290515     51.228726713268017
H      50.337813291245659     48.369024038575780     50.228638823669350
H      48.587004655676978     50.778153367496046     49.781444202180694
H      50.255522520136843     49.129567751750017     49.880347699966727
H      50.547529020083324     50.650119485090130     49.560798542770563
H      49.266299698326257     49.099109556731477     51.264207617238569
H      48.576106263450541     49.132770221146892     50.327783824664380
H      50.133591527067949     48.106435707295489     49.798671861466843
H      49.816867910422097     50.124142360703729     50.884138199909678
H      51.180684025205132     50.922341439850570     49.176527339679971
H      50.760650048095357     51.062042444684032     48.919701667643636
H      51.361411079394742     49.174202136406322     51.635632128413754
H      48.503983619506783     49.457868007720059     49.465959809875628
H      50.300850080745718     50.924650838935094     48.298728815787349
H      49.707465225998135     49.084338092162874     51.783842847385202
H      49.389093024190892     49.460638867928772     52.191897839533112
H      51.195136813720204     48.709554510845869     51.967186362902403
H      48.976659533131048     48.730409596418468     50.062755435455784
H      48.759358672528307     49.418068174008198     48.774385598463347
H      49.657835945732948     51.051352705498537     48.372827271962642
H      50.669895878536728     50.540406987086449     50.348393799780830
H      51.560512153366226     50.774407754677512     48.641041269831405
H      50.511036678053287     49.243228005333229     49.307522765472036
H      48.916195432916425     49.713974587840788     50.749065177894551
H      47.948308976426418     51.103967875886553     49.905155821003959
H      50.503947650191343     49.943160584644083     51.573004736376767
H      49.236136452788941     51.365132724156730     48.175724181999279
