38
lj38_benchmark
H      50.000000000000000     50.000000000000000     50.000000000000000
H      49.776490844488919     49.953598599584410     49.462731521836091
H      49.203907800130281     50.042814215132175     49.484080544023676
H      49.959942220350896     49.750571263163224     48.940100902932549
H      49.061904597410248     49.560621719307505     49.680902975250191
H      49.494549977607463     50.488358384800271     50.223860020389509
H      50.173836498557137     50.217980172781367     48.940350023142614
H      49.731230666758968     49.640410119478616     48.340264800105317
H      48.796388881055492     50.457204887680440     49.604514988944707
H      48.177231946275782     50.375955864869212     49.501119051221828
H      49.999575784525476     49.444788105248342     47.778994429513538
H      50.274321384223029     49.908306700798271     48.397395161323793
H      49.981613164697833     48.942745722421535     47.447717556353105
H      50.475340917987054     49.646205598970752     47.260592831707697
H      50.899764287811635     49.744534388817215     48.517459131146310
H      49.016564807957010     49.057296780263293     49.217816807478485
H      49.784251591543054     48.353568499297310     47.957716321611450
H      49.067023473973556     48.586102239645776     48.195911421062696
H      50.678881089180607     49.483732805195459     48.061650744759575
H      49.376921830322701     50.136613263739363     48.696116605485642
H      48.596852201686509     49.169186194800304     49.867580845094665
H      48.716308667716859     48.917845730722469     50.322532596372177
H      50.996449299460664     50.279791182814428     48.564871070281207
H      49.723486487266428     50.995408710151452     50.634052328288838
H      48.737014312640106     48.073536068809638     48.689818273484505
H      48.529144142826453     49.387192788822837     48.803078735914283
H      48.017527030940386     49.843612654737683     49.477136510651498
H      50.251037419937362     49.219608553709975     49.005701739549650
H      48.499090191280452     48.295487103174423     50.114859873122271
H      48.238891037606798     50.853606760032996     49.829554188793516
H      48.905919553376926     47.968739427122230     50.566358761739913
H      49.952508512664679     47.645848985291259     47.773445956150624
H      50.163884806948992     50.855180190713085     49.103344897505366
H      51.493035634490795     50.607259644999957     48.883460441541615
H      48.682478685644881     48.650669406819446     51.060469623257902
H      49.339377591746761     47.828107945557825     49.911287188702140
H      48.044966901895769     49.084787362848907     49.703004807301610
H      50.558612260867967     51.147817552178118     49.505437104736608
