38
lj38_benchmark
H      50.000000000000000     50.000000000000000     50.000000000000000
H      49.504146278698968     50.160303996616896     50.464684302764120
H      49.329766838096283     49.793076444377995     50.084642017344834
H      49.097133115230527     50.652786631815928     50.808591162887431
H      49.392862015646507     49.882918854794298     49.383601332346743
H      48.838701483287807     50.235922471074225     49.989360485893087
H      49.508249241526300     50.399487920623599     50.932085126291284
H      49.062255054580369     49.524145252816076     50.463361562329482
H      50.181753687308813     49.362352840782286     50.170678450022905
H      48.887373342487578     50.278894774884279     51.149209437811685
H      50.838504524125725     49.603601390559490     50.508994157549367
H      49.317181716382507     49.747024684010348     48.695229721325241
H      50.331258019369166     50.194981193250612     49.426796946494470
H      51.269304033593080     50.187430293651254     50.203726301157630
H      49.183061167600130     49.017827072031494     51.037710088494720
H      48.649003972522728     49.293607897596672     49.903427155193341
H      49.549547201841520     50.349178654839548     51.728044945266383
H      49.601589980340734     49.205596847925499     51.308985356745971
H      49.732567632190943     49.673048541646935     48.373236174020825
H      49.399936750268310     50.732567641590308     49.794946465633885
H      48.279497934490891     49.135787896836540     50.446181660982283
H      50.956051980529011     50.559972185450732     50.323521128642966
H      49.967232721101922     48.814237929292396     50.528384975650440
H      49.564090808796799     50.756185191985217     52.072208085441332
H      50.443077302887588     50.895035776633677     50.471285113375295
H      50.327233226979118     49.029366042847002     51.039701391549613
H      50.391096759224673     49.467113532617404     48.416936992380009
H      50.741969979756952     50.575553788124630     50.862234898169312
H      49.692240583316526     50.102310573166044     48.846846968892443
H      50.710790515992130     48.747908599888348     48.355978003853714
H      49.714808464187605     48.912636895545617     48.200752914496562
H      49.490286272895517     51.446697852400966     52.190630925822497
H      49.801488597833611     49.450789104620661     48.851513314483050
H      48.550672967922893     49.695039082151872     50.456243681891593
H      49.466396441366555     48.311384957594335     50.893169176127941
H      49.847138815585154     48.724552519174857     51.757572042659142
H      48.812724682141017     50.538132764472671     49.430648819045174
H      50.509295500025083     50.124767762186124     48.568584624880259
