38
lj38_benchmark
H      50.000000000000000     50.000000000000000     50.000000000000000
H      49.299433881557562     49.663279193062245     49.941139466959036
H      50.420481647476770     49.385850851301683     50.072416233556751
H      51.090361651687260     49.445490027309141     49.740356375812425
H      51.307868335112715     49.802100686985028     50.227471043941520
H      51.607154240625974     49.238521172234670     49.775446664509538
H      51.775001620604556     50.155738125745067     50.134769526774079
H      48.730282471966341     49.994726827405550     49.812645290533226
H      49.425432730606815     49.182587631623072     49.476149124685612
H      52.371126936242213     50.273723608391613     50.387598702704210
H      50.092583080471037     48.765818441007973     50.448336184990453
H      49.896670651117624     49.498920356964618     49.182621942515901
H      49.885969372726315     48.135519639560684     50.179293486831817
H      49.782115769094332     48.994388191277515     48.589344380589523
H      52.815668652225739     50.232444106836624     49.928741108562363
H      51.252756989676925     50.295339010980413     49.604745422083894
H      49.820171488727325     50.616680877653529     49.704336574033945
H      49.248853721011862     48.532167023909587     49.118105462325119
H      51.147632313873444     50.098751838435426     49.090541951403743
H      52.365411798625502     50.433393399771440     51.110571910826835
H      49.511897125493874     47.671579566909372     49.660688632986655
H      52.152432444291620     49.550220668795859     50.246331481946314
H      50.569516404547599     49.830557081872939     50.263947692488536
H      52.482892431688398     50.766018752395205     50.389296586097252
H      51.297163649134134     50.748306987178225     49.186562847949553
H      52.231985347977570     49.056203834194939     49.359869241801867
H      49.025227198740026     49.461655477618471     49.142001577480279
H      49.161766107978259     49.739524029472271     50.662503655079362
H      49.541651958522316     48.776136446181198     50.394468965699019
H      52.200230901761316     48.339630062009938     49.365181831767899
H      49.667362702500213     50.785242035848334     49.078037119213676
H      49.651239406626551     49.611494355777793     51.187578257937830
H      49.362082046951059     48.721118483423218     51.039755913499668
H      49.450049413175172     51.441613659070100     49.457406544316605
H      51.386953110001741     51.528068956360876     49.196673637932072
H      51.049377917890673     50.206413791497241     50.761850833267346
H      49.687751155291295     51.899384821447612     49.835169738512747
H      53.269834328342299     50.325350147013978     50.263967517147059
