38
lj38_benchmark
H      50.000000000000000     50.000000000000000     50.000000000000000
H      50.567233406362739     50.424870031148743     50.162412400323767
H      50.325933474581795     49.511049629696323     49.920018913202021
H      50.962249994895686     50.286387338220514     49.502143911953929
H      50.524970948255486     50.286424689741864     49.202843786159512
H      50.811476690736228     49.775695660643450     50.041858906287743
H      50.629008978206762     49.242926724934520     49.317169817353140
H      50.987289429926911     50.009371496163460     50.515219311889602
H      50.162525525649315     49.603632498753740     50.680199377283962
H      50.842602758976859     50.893188971148120     50.596392184908929
H      51.673823294585773     50.239976035244126     50.273387597018214
H      51.044399068980603     49.413522972089716     50.917688292647213
H      51.155685726813481     50.968159387354753     49.971066658801881
H      50.010047963959252     50.265372472221650     48.831498858504538
H      49.387029997404724     50.072226332815646     50.107100122518879
H      52.051450537009956     49.864830165937910     50.773754307205913
H      51.157537470600722     49.695818112633553     49.203530607422039
H      50.676440117239679     48.972066855623027     51.467007528656922
H      49.142226333407173     49.650024633642893     50.282134586149738
H      49.307827133501007     49.161611135094766     49.973827516521077
H      50.267192815427407     48.752475375899813     51.059855833876021
H      49.658069590122999     49.766275551648299     48.487516373122716
H      49.816953105051716     48.357572470124111     51.147116643024333
H      50.333826276382020     49.614080119718892     51.175065272182486
H      50.663051216897337     48.786039157922040     49.595309799745280
H      50.882515510919163     50.570008806258279     48.901151543973292
H      51.434885999993888     51.407500028137136     49.607062512975148
H      51.543775028974935     49.856827653557161     49.615239564147757
H      51.914369863514921     51.220951604719765     49.678708801339674
H      49.167592213499908     49.379943233433856     48.837197183841639
H      50.961937630408663     48.472200225613115     49.935776061246472
H      50.541817787178907     49.956065154012194     50.759786753261018
H      50.052508471097603     49.216730505661687     51.047604913485770
H      50.960400622796307     48.483762855825908     49.287889666108718
H      51.695951369278163     48.172482562607215     49.258007500926468
H      50.010231835870187     48.900583637357855     49.528089775020810
H      50.782442205486227     49.225605969501245     50.489035916420363
H      49.377080869264212     48.515189889213225     50.724892100897776
