38
lj38_benchmark
H      50.000000000000000     50.000000000000000     50.000000000000000
H      50.083489610100351     50.136468859416397     50.712958202096345
H      49.486860675619560     50.122840075523371     49.401696722936620
H      49.959006301004159     49.863653573698386     51.174008786366059
H      49.367601006228604     49.989607345487833     51.361227418591454
H      49.838031999959689     49.295526088946687     49.956031752952882
H      49.343449625754090     49.040237032354213     49.918418151153389
H      49.363283608367325     50.387184775177936     49.830601032302347
H      48.869124335369797     48.585026001733631     50.269254968202901
H      50.385043822716234     49.042283495177998     49.858039780205758
H      49.823825517599957     48.463639073449642     50.057715984411885
H      48.997024382774462     49.673602508807051     51.456894213444706
H      48.879297084125106     50.422780191200168     51.619519192580391
H      49.271122813604862     50.459556354957989     50.597380292549232
H      50.221603111227935     50.136597184473544     49.543205427196391
H      50.769074613311062     49.978328459035183     49.110730799805665
H      48.721630270182992     50.085890503612781     50.929848976998365
H      48.518876918441300     49.913342372731357     50.268496129174345
H      50.173303832486873     48.993636585669194     50.436508440338756
H      49.709909829305424     50.676594006489822     51.598126545907121
H      49.777688113140371     49.163278841406004     51.465416941978532
H      48.270314692009009     50.567582587071655     51.874091135042377
H      50.646187604886613     49.541663227448687     50.568875681986022
H      47.743563451031953     50.305592614557405     51.395318701539949
H      48.647362263942604     50.107329797359569     49.703899666290646
H      50.736944760105722     49.407633802194489     48.611686215325292
H      48.572250094257022     49.340448379610656     49.834467758501738
H      50.950213900138316     49.994689332743263     50.014755178917589
H      49.999675360851242     49.072709911276057     49.304047298410950
H      49.124563033777676     49.741065249572934     50.369731681217537
H      49.764643519123183     50.876791665619848     52.181384133105986
H      50.748383016097868     50.542777797352997     48.699225749589004
H      50.538866902341454     50.425563591273985     47.990880222069009
H      49.843079383353000     50.244221632428740     52.343732117016131
H      47.440581079845003     50.219748006648203     50.888555833962947
H      51.253866529074024     49.871291306666123     50.625488249502816
H      50.406821208177625     49.633256405015842     49.210453171947108
H      50.252705469076503     50.566845614362016     49.005802159035859
