38
lj38_benchmark
H      50.000000000000000     50.000000000000000     50.000000000000000
H      50.460442950641891     50.641900635064516     50.070238258652132
H      50.637633862681184     50.154834599637418     50.033692393288376
H      50.929827535314303     49.827689135376033     49.391349189215397
H      50.896287086619225     50.025036787876822     48.618949493061002
H      49.504489108084151     50.135020723788472     49.777459065132049
H      51.330262220373790     50.488514106474817     50.022654747617423
H      50.217148692903045     50.658454214891286     49.507234267864298
H      50.369303740906922     50.904492752598685     50.814641630964474
H      49.973113232876237     49.946455675383127     49.343656328484180
H      49.752034084600602     50.542019029594115     50.000969723156828
H      50.600542185463354     50.236450002730543     48.151498605190660
H      50.022511890764960     49.847092766410960     50.615165389771917
H      50.866596709435406     50.810813307071641     47.756553990950131
H      51.122118008365426     50.640971670999797     50.510097579111658
H      49.986044968146246     50.279132140954914     48.094343291379957
H      51.423142523182165     49.843936294059574     48.708387286807714
H      50.918757059552853     49.650336858743984     48.184793574487756
H      49.671168180301038     51.205833976498781     50.084070492547831
H      49.785923987893582     49.377117745323680     48.818438358126073
H      49.446964595218326     50.291694938697944     50.375915781039375
H      50.318591348370582     50.650891614371488     48.332662655987583
H      49.303454859971815     49.517281447504047     50.062032172443359
H      49.479845547315485     51.656593945219555     49.497642593259798
H      49.687693178096453     50.983852930485348     48.059877306443887
H      50.234656039764140     49.474035381628212     50.012614462304889
H      51.024808227339228     49.830440814442525     49.982586297278687
H      51.394368382049180     49.624688050556848     47.670685613603972
H      50.600075784262714     50.535274169519809     48.733303885016603
H      49.396627776808273     48.748497979248015     50.179092559005959
H      50.404529995493746     49.619588070390556     51.184358903820886
H      50.868068090253814     49.149628434064361     47.970303592459643
H      49.017586098507451     51.034802783231768     47.739953204233466
H      50.542234125442675     49.095762367127307     51.654403558721256
H      50.556154537201799     50.300672539697089     47.244230702884678
H      49.710572988942040     48.601057712697099     49.672415721473541
H      51.773429489403128     49.616972880090366     47.224588851420030
H      52.075345088948623     49.726307066449351     46.558466855485378
