38
lj38_benchmark
H      50.000000000000000     50.000000000000000     50.000000000000000
H      49.282064484406426     50.045841144437823     50.142693131858941
H      48.929330807992450     49.596853983259550     49.853520994597986
H      50.007162302280591     50.437978973430262     50.295620174436202
H      50.511345460822270     49.643909539036933     50.306803577089141
H      50.836319460452195     49.555927308884449     49.728236405279723
H      49.587398549416164     50.761117535581128     50.735401090674429
H      49.629452451596642     51.302575749591860     50.893708258405518
H      49.034986143330407     50.321938098473133     50.918386404351047
H      50.365096768420081     48.918690820311411     49.820572285935576
H      48.492850895787946     49.158690325594584     49.627696323344551
H      49.853932071634617     50.211813280884662     49.327527781313023
H      49.255430859603933     49.334166582524638     49.455967563558289
H      49.853798013923715     49.711496308783140     49.062833830916432
H      50.086459565039846     50.700772404318279     49.215634940578987
H      48.506699286686882     50.758496187293126     50.913281752367553
H      50.136302434495406     49.976101559385384     48.630129984436962
H      51.199247657117411     49.711761863248924     50.452898185734369
H      50.888241748941752     48.536863962116897     49.455963799749853
H      48.773213289094095     49.730098186112016     51.187820015292040
H      48.487240624729786     50.295480109269377     51.610858591009467
H      48.435268618095023     49.755802141474121     51.673117233508137
H      49.635778572678305     51.037094981571272     49.077576299486829
H      50.078602626433536     50.588676445828703     50.939737233065834
H      47.934403353759386     49.098644949906323     49.950238526529105
H      51.119031959415771     50.031812889130791     50.854353807580480
H      50.926795771096415     49.973852965318436     50.129414087932112
H      51.480217504640137     49.696352078936762     49.679654553723154
H      50.437290747766923     51.123824488438963     49.669178041122088
H      50.148840245826904     51.385539508505893     50.114870012162235
H      48.051971405145736     50.896001155386529     51.087390208025809
H      50.935620140658429     49.953082002699581     49.388119232798360
H      49.472590360157419     51.529495516360974     50.137855189285709
H      49.609177163818792     49.525220816898894     49.997206370130158
H      47.964395969616461     49.354535481158095     51.479888420828473
H      49.052424580578247     49.576280385055313     51.789318252415960
H      49.714006191899401     51.970510950371079     49.807628939529586
H      50.010240462334814     51.841432901137125     50.559434272385275
