38
lj38_benchmark
H      50.000000000000000     50.000000000000000     50.000000000000000
H      50.619639283404481     50.474301566297093     50.079121070897244
H      49.875373842790168     49.467769627252807     49.727013439742798
H      49.526012248149797     49.474684027835764     49.016165847892218
H      50.735832231211440     50.372110757193944     49.345391631198694
H      51.334438111601152     50.832675233696690     49.607411267742449
H      48.968661362449680     49.387097351869869     49.122717866442336
H      50.885868548271787     50.959324551064498     50.648858153509472
H      51.568658183110578     50.136425219271935     49.400356155787442
H      52.198405002531487     49.750881241440837     49.388701071640043
H      49.684080960579060     50.046698390943185     49.160220131501809
H      48.625227004304207     49.147963831433451     48.528166412156395
H      50.491940024484052     49.709779206587221     50.147329319616226
H      50.948832505290582     49.517792360253075     49.736140138343025
H      50.158572193483018     49.871594678240619     49.128781413804525
H      51.528127488519473     49.814612398228590     50.022896102392686
H      50.185061528226548     50.508606116273263     49.467370431898381
H      51.301698912686980     51.592497568246358     50.444506707300555
H      49.787901277107210     49.149828255207950     50.262683983397821
H      51.626089165992731     50.616915642524773     48.769080151007863
H      50.301876107616508     51.150734369495702     50.227409838644007
H      49.181910673435084     49.428083410448764     48.188844096871570
H      48.324552139017726     49.624317829612394     49.055786966852310
H      51.989053791175095     50.877028174594017     49.175929193322780
H      49.010018112381552     50.162081562940799     48.278932091841668
H      50.927554233738860     51.645617055723115     51.005849004469717
H      47.902887162471643     48.932103345677476     48.481739454453290
H      50.129410480537338     48.997276333217343     49.533528883707262
H      49.145761147792840     50.645718230962892     48.014877841856610
H      51.148623543169897     51.533324320233866     49.293952118256733
H      51.887570467148834     49.918939947859144     50.462543866659296
H      50.233119995175826     48.748911179977497     49.090643785716345
H      52.287535656386979     51.436786552399269     49.498924673869269
H      49.111062826192310     49.057089620300133     48.778600900350014
H      50.796942139804386     49.937683698755379     49.028105148543943
H      48.418979135040871     49.851858413410156     49.784947380865717
H      49.825522998836561     50.903881264082273     48.159604640200406
H      51.547931817570671     49.322503371478717     50.758848063875121
