38
lj38_benchmark
H      50.000000000000000     50.000000000000000     50.000000000000000
H      50.205476406081033     50.206367546610799     49.293382478682602
H      49.739155842890455     49.898536910630092     49.212279126717583
H      50.135737980574184     49.533252773140390     50.629933987193311
H      50.551515421977818     50.021529455679790     49.766891483606543
H      51.257923219704765     49.701566402697750     49.879895173585972
H      50.007291199293064     49.787903580533367     48.707574580478941
H      51.805903651329174     49.750946619000786     49.391987469286221
H      49.460849824336179     50.352934618168831     48.653407873268328
H      52.203994546668916     49.796866305259371     48.948249537468371
H      50.358989810070817     49.658498767987069     49.096859668587115
H      49.101502434066127     50.419745321002310     49.217026023412060
H      49.570606320385309     50.718059647432462     48.191577589867919
H      51.433099872987682     50.260871182520759     49.626445135088247
H      50.814312451962614     49.355368180681779     48.857630502764934
H      51.950305517782276     49.240115030358581     49.261131321890034
H      52.116957337551575     50.271210021192225     49.691381233382707
H      51.234725512064408     50.883651222364492     49.790328013467267
H      50.063534192708410     49.898731505990590     51.138795603924940
H      52.403941824191001     49.419636896513708     48.615601322908105
H      49.895348756274529     49.027457230926089     48.891688823399186
H      52.250040672446140     48.893860592458267     49.476647011009710
H      51.423013651927349     48.947968795749823     49.519620145595454
H      50.081205458809819     50.482968615471151     50.198449498401430
H      50.907829273468920     49.698043654537742     50.306709407321236
H      52.582212345119459     50.006569560956876     48.234502272694527
H      49.472489740830419     49.724169129186620     49.710969583653366
H      50.004078381782030     51.264387454280637     48.377628043982853
H      50.008027768918275     49.136075548053654     48.333710913006996
H      51.526374307031119     49.548802639899925     48.886420386625716
H      48.424962878302317     50.700170208915509     49.038823027534875
H      49.885625365232670     49.346534760771043     47.874132133571592
H      49.445217011383129     49.263049246721366     48.195397384293699
H      49.896688100778462     48.644195309477610     48.409128982271426
H      49.759666104375050     48.552447183202574     47.857701601668644
H      51.517847833384302     51.274543439608600     50.371957580269616
H      50.568793132577838     51.049553385825917     48.612287319124967
H      50.854672020438137     49.777351704647117     49.217626577517592
