38
lj38_benchmark
H      50.000000000000000     50.000000000000000     50.000000000000000
H      50.375562432086483     49.712857724895414     49.375934431030423
H      50.189333310796222     49.297126755530392     49.871925484349575
H      49.875258973336038     50.484134513228796     50.051494448113985
H      49.698541635868821     49.622657308438924     50.332872652017180
H      50.705730421465219     49.357421424009253     49.779342913068660
H      50.556221255049749     49.432401838049522     50.329183570590807
H      49.717273534679144     50.706488279850404     49.584816637872244
H      49.861674904287923     50.400093994350826     49.047119331934965
H      49.977872102262197     49.303567292010641     48.946763933719204
H      49.191757830037815     49.969175978511373     50.124780885214861
H      48.754537613021789     50.467829327036839     49.999363571538353
H      50.619188881790876     50.195629481551634     49.968878056494432
H      48.049136697391774     50.462942954092370     49.786036730323239
H      49.997431953482781     51.220891351679029     49.952094351750986
H      50.132997426779070     49.500147606612558     50.735690231758170
H      48.988194114658754     49.819434659219176     50.730325726069914
H      49.064567896987128     51.160839971386132     49.552952165421978
H      50.280297639989747     50.778330247463558     48.741663175467131
H      47.539219410600090     50.129281418574344     49.572295107076251
H      49.245680065766848     49.983233758616301     49.471802727780485
H      50.739078815953448     49.641512058785970     48.725849754614323
H      48.182009595115844     50.005302762129695     50.206802588702352
H      51.250062205901457     50.078497934860636     50.041715822792050
H      49.456375628857494     49.986846020335712     48.816896982944414
H      48.636639673014074     51.153685582132688     49.228923807552412
H      50.084667116833948     49.116033746689823     48.491773084570006
H      49.664435185751415     49.110819520403723     47.902453432495015
H      47.211583475028682     50.630037399810028     49.750048389628759
H      50.593042679915925     49.979823265894865     50.442571554406094
H      47.886930485603742     50.126417938776591     50.938734186821335
H      47.907473755118325     51.011715238917802     50.100089152952428
H      48.533972939116218     50.776813714317960     49.580443098875030
H      49.457566888561395     51.534520167874881     49.925467818127288
H      51.778156386137638     50.279299140672450     49.478415323244526
H      50.656925588026411     50.347796515926525     51.118662927012004
H      49.707960613202182     48.920096304504312     47.141435051430747
H      49.163832865926935     51.644623467127666     50.648087553700663
