38
lj38_benchmark
H      50.000000000000000     50.000000000000000     50.000000000000000
H      49.687386377717210     50.214623994462066     49.669628512262619
H      49.599868805278724     49.511947744275005     49.784144567203192
H      50.349622361395305     50.650337687429676     49.612474161532958
H      49.262373488159554     49.470763138220278     50.442128341764210
H      49.647758901899522     49.191446070586416     51.005255333278591
H      50.166002016276870     49.179909379085572     50.233652494144103
H      49.456613089975733     48.966232321984450     50.336921550110794
H      48.798031684410596     49.707838944423159     50.296771776728235
H      48.395352303997527     50.108566246729751     50.147053691228493
H      50.677457613660970     49.277880759801789     49.788391722291365
H      48.192023348131450     50.499925840388769     50.431764073383015
H      47.747082702346034     50.537876860946355     49.804537525322360
H      49.103144944287017     49.582379605224631     49.204394915251356
H      50.386885304664183     49.701481506974964     49.783265213884242
H      50.483715115592005     49.011671159011740     50.900795307683126
H      48.510189996330212     49.218944897013259     48.907397417721164
H      50.035688384622041     50.140334591048095     50.721433942084296
H      50.578377497527626     48.454628848058135     50.745576009847099
H      49.307359266494856     49.949976344143330     48.918065433344239
H      49.122132200107188     50.006726489998627     49.472496352628674
H      47.419885738700579     50.266991372186517     49.522378124679292
H      50.477934175741368     49.970284528119279     49.324375758791660
H      48.417634405350974     49.793494478935621     48.351908677683539
H      50.372157083352739     51.059210758557050     49.288078618168086
H      49.778867594552338     50.833300883345125     49.281426034485044
H      49.688823791354466     50.166052909081777     51.317020324655886
H      49.350914836530833     50.517211187459850     51.545925484773178
H      48.131930208208971     49.312309064599248     50.138466131234921
H      47.411957488197096     50.881740643387737     49.618807787535140
H      47.941469051829706     50.040148711077222     49.586321519425027
H      48.026720154358415     49.444103960255809     50.765977199272712
H      50.854488723917470     49.778007573878220     49.610518421425539
H      50.443878450384489     50.847180686806226     48.803329641645355
H      48.822397619278767     49.194433360539058     50.475229314250456
H      48.362527871289991     50.609921014010624     49.884479419917056
H      49.969495448717431     48.137475266872613     50.842484268292395
H      49.237037935376250     50.028626239569931     50.008364572855548
