38
lj38_benchmark
H      50.000000000000000     50.000000000000000     50.000000000000000
H      49.461584870833164     49.930338851780732     49.422544431148886
H      50.242034592156493     50.248827793574449     49.617549243431753
H      50.217847204747663     50.864068878407494     50.135403373236414
H      49.873734984297386     49.500346269859975     49.676323295916575
H      49.329890553697723     49.291616957494647     49.261486874888710
H      50.174562689088944     49.108302465168059     50.103655505097556
H      50.749112118022659     50.936603993499887     49.696711560914352
H      49.638387154682292     49.498853902713037     50.125785262712647
H      50.990157220423214     50.618702238795592     49.131153315843356
H      51.282567265937978     50.370895480694841     48.515800566296342
H      49.770463285423119     48.649014168829559     50.342339747397908
H      51.284168828851300     51.050377647023716     49.860570398920927
H      49.601490907180590     48.990716598383116     49.648994554508221
H      51.419424720508601     50.053700563806395     47.902770985142347
H      50.183728739970633     48.916095307503859     50.868599151460366
H      50.960136809241469     51.046568058558670     50.509617553396971
H      50.389302293695600     48.390380110616839     51.086107537392166
H      49.904317803167046     48.494165521398678     50.903924562321535
H      49.219473761586855     49.686098979804100     50.525512237457349
H      50.130748654198662     51.646411802394951     50.052782778296425
H      50.074702365107626     48.621089813470995     49.526203856400492
H      50.729911201834696     49.522257695239588     50.318773976893588
H      50.430821488705710     52.042225356738790     50.433083639703042
H      50.596519818040818     48.235944834221883     49.471507950561445
H      50.813810640090146     47.909696206257337     48.975207873012366
H      48.752369941943940     49.713201690519867     49.234709671121607
H      48.541454435942384     49.374958285041195     48.628420703966540
H      51.506211678346496     50.356085216146376     47.207616444011798
H      50.147864251166808     48.956316293145520     51.394667134603580
H      48.930520825022121     49.618718288305232     51.194480154097043
H      50.497300858922621     51.410135984371223     50.724551736850437
H      48.749525003716357     49.553763506617649     49.813949532195217
H      49.800732417815290     48.762502869406312     52.043711820049666
H      51.322881293408308     50.718015680393563     47.788617157390263
H      50.423885675124787     50.245465544306832     50.462277954214187
H      48.949156516206230     49.025280388910822     48.280229004158670
H      50.007168090632021     48.414543637628213     51.571976504125800
