38
lj38_benchmark
H      50.000000000000000     50.000000000000000     50.000000000000000
H      50.350450996168014     50.427006802841241     49.972679698558544
H      50.533851433198954     49.915218351046128     50.088732434673723
H      49.504997464663468     50.042479901629370     49.588221896156917
H      50.036765252496942     49.249146447501040     50.201297042602953
H      49.868666357844532     48.948921776707174     50.592666259418976
H      48.916428238386160     49.772643810958435     49.426668939818185
H      49.928552596812850     48.982122280149973     51.283091239435869
H      49.251194170257037     50.147391024826014     50.054184046652878
H      49.085329569593760     50.835022487341057     49.844529637603777
H      48.531791360184634     49.347102790768140     49.123554623589072
H      48.876436239046591     50.461667577455742     49.395362826633104
H      50.453531946326201     49.121967861068406     51.187638597200099
H      48.597323402821729     50.552231087456491     50.082988734193194
H      50.593121717110776     49.613207181053802     51.796247813254958
H      48.635139207556790     49.442155851232471     48.362918441088460
H      50.636514202410375     50.688880620961150     49.540555580256999
H      49.658596726243175     49.657681026640972     51.474705781769742
H      48.260529743401392     50.426491562364234     49.205282392415064
H      50.908167234507445     49.132598775126894     51.636308447288521
H      51.036997202776917     48.907427415756580     52.104319728545150
H      49.755248523024548     50.345034407716255     51.718133341742202
H      48.452324898094830     49.875979511793403     50.062517292055318
H      49.727358428917242     50.905990327245867     51.828857064936564
H      50.488533024657386     49.361277352869458     49.566423386952017
H      51.086180356153690     49.881059320157931     51.974079872941516
H      48.084382237706905     49.143670682120252     49.419317331532163
H      50.083454951554110     51.536875952270258     51.886724736410613
H      49.773727894865296     51.124614139567242     49.902485115089917
H      48.423715193433623     49.916793572274294     49.454753369534643
H      49.446844200734581     48.815353610896224     50.051112259347605
H      51.178588156335152     50.341884420206938     49.511956910189816
H      50.364510427813450     51.162441674195996     51.695619587144279
H      50.813059829838920     49.788529415939486     51.159581956407095
H      51.605360956041139     50.982870770201131     49.628245572702234
H      47.706166650523009     48.971185736207836     49.119524200099072
H      49.013216127010509     49.019726336163444     49.853422309013929
H      48.598701336729015     50.500942311525435     48.655769661373519
