38
lj38_benchmark
H      50.000000000000000     50.000000000000000     50.000000000000000
H      50.023177082137984     50.339877651425134     49.533079889937476
H      49.711618141232059     50.490897606507403     50.007858807533154
H      49.365778400262137     50.337314650267899     49.479381863200437
H      49.511837155455567     49.871904047440317     49.793455971386841
H      49.321258450532852     50.939570053139825     50.107034158758836
H      49.913038578317853     49.603438281737084     49.273137738135901
H      49.988686254856063     49.347042408579540     49.900848689472717
H      49.918202610168535     49.432858023566098     50.553053110678782
H      50.380322464956230     50.720227153262236     50.348418789016954
H      50.679449971792188     50.810366613136978     50.952830603263052
H      49.768128226965537     50.140258179040927     50.553650138782821
H      50.374145905453879     51.372104770882466     50.181206476691450
H      50.636966468148124     49.360401524685642     50.751743882885535
H      50.385307325778626     50.761095259930038     49.692696677261750
H      49.829206300589625     49.925599128911756     51.048547593993874
H      50.742524844710132     51.493854320946298     49.741569150011912
H      50.956854268312227     50.587405882473888     49.568464237215103
H      49.733781984905711     50.962647050636768     50.742771444500448
H      50.908879863342513     50.786586548209087     50.099620615750240
H      49.265515014923714     50.268628315711318     51.048571805009956
H      48.859655045575010     50.518820729198680     50.879539056441736
H      49.072850716600314     49.777533435900516     49.254048011126891
H      49.537732459318882     50.850896239550707     51.400634733106955
H      50.237546610117256     50.932267473048753     49.039140056706295
H      51.098814005400307     50.611975536796720     51.373219638228029
H      48.600419478070926     50.182353151819989     50.528133359851282
H      49.647526736707377     50.693604116205982     49.187942713335346
H      50.893880925135917     50.944396824473522     48.926028792966697
H      49.489493928430086     49.355473679601850     49.197343114899603
H      49.653180080689850     49.657782640734013     48.645210623383761
H      51.413850656450180     50.408832272656561     50.872109069601187
H      50.099254318683137     51.072414441105394     48.545212277178244
H      51.848082061487766     49.887577541140693     51.013960685136269
H      51.679607647186771     50.691626246036847     50.329774835389145
H      49.627970044737047     49.031449795642231     50.616379477294998
H      51.138607363475209     51.212471971239083     49.290806547857052
H      50.409586751676564     49.013586689889848     51.227747341667708
