38
lj38_benchmark
H      50.000000000000000     50.000000000000000     50.000000000000000
H      49.714146478986230     49.469905786025919     49.835837106859728
H      50.115482262820592     49.379224053865528     50.332151541935616
H      50.218041658869055     49.823719566336429     50.613138407919145
H      50.120398272239399     48.899556732284765     49.682164401596211
H      49.102069897845865     49.336644956791851     49.601244115921304
H      48.537454482273411     49.737960572707685     49.820288158735707
H      49.095524550529262     50.029507135533080     50.140576289263109
H      49.896875039544241     49.346044477456211     50.986919253014399
H      49.512457341553876     48.702997885078410     50.932304038223862
H      50.523607089812060     49.494087498785156     51.374236472334225
H      51.132953950663087     49.498868613696303     51.409832838443023
H      51.464591404988290     49.077180900667095     51.010219324189542
H      50.390360292554590     50.538680362051373     50.875419548864869
H      50.962859963446469     49.909911620902569     51.876719479766464
H      49.778131985577886     50.237846969774061     51.118374747580027
H      50.536847732579936     48.511968505111248     49.284637012511396
H      51.252747098882438     49.431869673082765     52.209387180131422
H      49.781008703081405     50.660245424449499     50.764574843598297
H      48.002016488519587     49.936856299443868     49.998626799603343
H      50.877730240169662     49.442890231001968     50.655653978236884
H      50.255968958639812     47.889924637825111     49.120978467578119
H      48.920932090654276     49.007047214715143     50.254581376206396
H      49.309839855008804     50.904378118255977     50.536176487986829
H      48.501661969655025     49.131937130356548     49.469203334138584
H      48.659319136087746     50.918729762531328     50.226674516959363
H      48.704493588203704     48.626604917142721     49.019452665670237
H      51.320721265713637     48.818422385452742     52.706769628912419
H      49.697456760977943     49.387801410479867     51.754586975186541
H      50.547098048736579     49.612044555701772     49.819418950777184
H      52.076355012493543     48.792713135002934     52.982149950437638
H      49.394774976203074     50.470813174654900     51.715423458331145
H      50.963121452097894     49.860452054224353     49.282806865631592
H      50.005254523696784     47.765679688320027     49.533022704119290
H      51.297720698166231     49.462129604069716     52.861813936002292
H      51.575820353382220     49.651688912901875     50.366669546513251
H      49.468580887315191     48.667822074548816     49.841190934491507
H      48.926788848975157     48.159216811834298     50.045410174600633
