38
lj38_benchmark
H      50.000000000000000     50.000000000000000     50.000000000000000
H      50.204035017420033     49.772554294848440     49.452216603847290
H      50.850213356114025     50.045547723881747     49.197993092156537
H      51.096403310896918     49.792914937791174     49.619757849284824
H      49.629587418919570     50.547887786703697     50.136374951206243
H      49.771310050260922     50.920428248817544     50.547738020152345
H      50.446663349498891     50.252020521627969     48.688128545145176
H      50.718218575297918     49.712881758432971     48.243680246974819
H      51.540076193936571     50.104469068256890     49.735270505664019
H      51.254067426742097     50.252911821135427     48.650689425502279
H      51.295032299251254     49.872491911355617     50.358743203755132
H      51.233856562314131     49.514572769226071     48.190040723645154
H      50.042851469476993     50.939954547316646     51.172937206238210
H      51.835363406006273     50.659887713529976     49.002022228391219
H      49.781936351185479     49.443283178262298     49.169810417948995
H      52.579333373384486     50.449063051646931     48.989197272096192
H      52.649196766840824     50.309122908448003     48.296501928021605
H      50.181074704933344     49.258750132794795     48.386536859559158
H      50.505981493856638     50.574986739119133     48.092488477120767
H      49.421311083333201     49.937518376855621     49.717769884579099
H      50.728517550293333     48.746048641717501     48.213292415211441
H      51.358385505579832     48.381848819149525     48.388452041326666
H      49.788083466881226     50.289177672422475     49.128064883377739
H      51.044465931244986     50.851979098897843     48.363504946953022
H      51.004532621975919     50.322261516804005     49.875976021432805
H      53.314676340807416     50.093603328242629     48.172437081500959
H      50.858173454449073     48.014154742923594     48.545624033577667
H      50.936986498083655     50.047801059135082     47.769973992993094
H      52.914117623091059     49.869726111602759     47.905681094160300
H      53.179832187378913     50.736713932111030     49.438919179012309
H      50.373745817659845     50.588601524811452     50.965205354040485
H      50.751716382454937     49.024553675033395     47.569972991974872
H      52.855777652988564     49.469180579462865     48.464398938540953
H      51.452271343501323     51.248231076544378     48.277203177653263
H      51.598802183023807     49.360670009361741     49.773988092925563
H      49.210687066282915     50.411601559604364     48.978416531468305
H      51.192629773412065     51.680475581511743     48.718901767957611
H      50.867136318442974     49.483096668948647     50.869837483799785
