38
lj38_benchmark
H      50.000000000000000     50.000000000000000     50.000000000000000
H      49.510614954666558     50.095055886864294     50.066054454329262
H      50.467098940557044     50.224894816259308     50.379022313902361
H      49.933258768999956     49.477131439927902     50.208077892399537
H      49.112289205480344     50.353284486966821     49.855048591094842
H      49.521957141972386     50.300389582131245     50.624003626243045
H      50.319475679907562     49.415139763510965     49.703851081285258
H      50.919023118965896     49.550719207584038     49.492190493888678
H      49.600463832459781     49.148276050846668     50.716849591507021
H      49.390042966633473     50.340841417212047     49.321556073601322
H      49.840051308176278     48.721589639371892     50.555730937164128
H      49.530033251327382     50.890994999168470     48.938197817520489
H      49.791095467623201     49.169187387004307     49.323987038938959
H      49.317262495182732     49.339251826599373     48.752459804468884
H      48.933379091950222     50.726040826721366     49.279337803512234
H      49.434824846004439     49.786126713809978     50.510720419480172
H      49.846689911618405     48.530233751025335     49.511983833037633
H      50.037149196996417     48.307748290732569     51.143856393254630
H      49.721567295318415     48.491212185958346     48.764579941039500
H      50.074516244868583     48.848657475839985     48.359008172896488
H      49.872832147030707     50.446574625582898     48.918136305139946
H      50.500602720516966     50.342983184621154     49.591097829811510
H      49.113604218251709     48.612640771609470     49.556197835625071
H      51.403317092698316     49.607457166862176     48.940034879767850
H      50.364788266767846     48.329934467264692     50.142997140975964
H      49.659311326937562     50.555401122372515     51.103757532199459
H      48.914327152961441     48.196260235405987     49.092100841341619
H      49.155772011400359     51.140229313125722     51.328773414414044
H      49.708381416922279     51.133775117136373     48.381010013331192
H      50.259416614029085     48.026292603926755     49.592216111490970
H      48.717569961873146     49.198885431205689     48.590539141587286
H      50.103154492695595     50.965158165523498     48.704287080476171
H      48.314631601455687     48.158654669485628     49.089538059096427
H      51.600385627872647     49.458038479491449     48.471908542848851
H      48.273384111858455     50.701286405319529     49.401555287950643
H      47.892169627645650     48.014068306262416     48.600082158756976
H      49.691939921804327     47.825319052825108     51.316295746597874
H      49.833915596780656     51.556173649320648     49.185134396093481
