38
lj38_benchmark
H      50.000000000000000     50.000000000000000     50.000000000000000
H      50.296409934500623     49.539750116004996     50.408241142790004
H      50.491017043349601     50.498202206166461     50.240872921583282
H      49.577157860987235     49.549433492163637     49.663295160295718
H      50.352399479690746     49.556319233835303     49.592760777397629
H      49.649522046397102     50.120498008685615     49.571997525465335
H      50.956495709346200     50.973731087502088     50.166436188732632
H      50.273431916799666     49.207759901681655     49.078473414284339
H      49.810131274379579     50.429026354359316     49.077585373068587
H      49.849535961342617     48.640777076762916     49.024540924145342
H      51.189256983725883     50.496302918584824     49.763910880455846
H      49.560701916460893     49.127788856058245     49.154830858922388
H      50.438725179617876     51.019391485028244     50.347770930225082
H      51.578031534692187     51.091581758225615     49.799341064803102
H      49.509961138059957     49.712411821302055     48.615414490892270
H      51.330111646533688     51.357034688755959     50.450002786421933
H      49.869593935911197     50.243199259363259     48.281465552543075
H      49.026940975308136     50.271240125593962     49.886324611868204
H      48.580526412612606     50.616541163033652     50.385689198784725
H      50.865613240399064     48.995421366601725     49.127969704308541
H      50.402930682153794     51.285075122744821     49.871710005494805
H      51.261419853792404     50.491711506579279     50.372268834082085
H      50.077323697591140     50.817612614592555     49.328034618612399
H      51.852905323025915     50.007104571901088     50.178121912361945
H      50.873101064079449     49.605862561898782     49.429345430567246
H      51.833594734367303     49.496122965704942     50.205798449450356
H      48.382214948634598     51.124972396737569     49.991655283365880
H      48.705906684003004     49.645657966987841     50.177057726472491
H      50.751268825847085     49.627931642606683     50.162344789224804
H      49.570318191185308     48.159922685132933     49.345932090684052
H      52.517136485910228     50.228519495081592     50.334899700750135
H      49.076021105860526     50.225005157055634     48.472080687627852
H      48.092466017494040     50.149906090611978     49.946959906503544
H      50.286244816926448     48.933925039945187     49.947894436029237
H      53.138033571204318     49.883170974631462     50.369022216604122
H      50.093109200043457     51.270156138238576     48.851479601795326
H      52.795920857575069     49.228457232002199     50.641384552339311
H      49.577527896045403     50.445468028799255     49.996128872508962
