38
lj38_benchmark
H      50.000000000000000     50.000000000000000     50.000000000000000
H      49.390600473318763     50.026905414209466     50.183419523127796
H      49.281639622238281     49.939720290149459     49.665158602035532
H      48.753635939399331     49.894339393901610     50.266732940946063
H      49.726987963025742     50.470224579025150     50.636094527953375
H      49.011198004317770     49.453091264070380     49.624280785443865
H      48.938398068826423     50.430504880906192     50.730488308529360
H      48.820438253014245     51.027363129661957     50.486293261037339
H      48.177275562412490     49.958407170400818     49.973404960591324
H      49.161844323351296     48.763981784427301     49.674503641555106
H      48.699676720646956     49.024308428158996     49.028186140750336
H      48.997417716099633     50.533521862233869     50.058570487002086
H      48.559897453169008     51.490373054382545     50.847986981272356
H      48.844904072931783     50.658325415142095     51.179150821261295
H      48.000079663726680     51.193741974134113     50.827767789836201
H      49.448964840261333     50.434814284903489     49.344554184167855
H      49.696993557167325     49.359073664717229     50.500628275730115
H      48.324948751008129     50.509862063306542     51.635701782557035
H      49.494320069477347     50.237113735346078     51.195732407818092
H      49.336278685916554     48.974893654702640     49.111763427474244
H      48.000855530419784     50.439928264663969     50.064627251365380
H      49.650580246703640     50.524757686527117     48.672269133252854
H      49.089109782898248     49.412294159163686     50.788750064241313
H      48.819960006659464     48.877972439207866     50.258298515333422
H      49.451126703927727     48.505395265779867     48.487233404613733
H      47.253787323437813     50.413241181249390     50.088102478300122
H      47.322619332712030     51.393553372542684     50.865911301357919
H      47.852399212900330     51.115772028968124     50.152444411429919
H      47.831155469451581     49.917005445207920     51.670279421804565
H      47.684465891924916     50.734444403677131     51.652397487651974
H      48.192103003561890     51.580127370855806     50.073943225293661
H      46.826979338895846     51.107829586331249     50.345522120659233
H      47.365313128544997     49.747222292121506     49.673748161529659
H      49.886650314791581     49.975209509629579     48.721757767842938
H      50.646685035633581     49.763215617919229     49.751421350068831
H      49.515799282763012     49.528109985975796     50.052723073789096
H      49.942374685897342     49.293537273330564     49.303398853216251
H      49.009740991624071     50.107319638853980     49.220539817764411
