38
lj38_benchmark
H      50.000000000000000     50.000000000000000     50.000000000000000
H      50.441539869206565     49.625262330542284     49.895188646729501
H      50.326883705765347     49.643792415182034     49.376228579579021
H      49.783907166304331     49.728133047189800     49.516354217024229
H      50.481203648040470     50.313987799547675     49.841811366208688
H      49.489238622077707     49.715631594027926     49.978284937282005
H      49.975671047599469     50.575972690189076     49.731304137732650
H      50.493630480619089     50.145074817581801     50.618563251214361
H      50.221230388078247     51.237302573358036     49.441211404094140
H      49.849936024822945     50.748354964154792     50.406583917089733
H      50.434790386226780     50.548776164910024     51.160669255441356
H      49.570541915871836     50.579791764197203     49.433540286662065
H      50.784308267101423     49.668971025168467     50.612008989969794
H      50.367929989021036     51.813876919759053     49.002319208501447
H      49.925436495350553     50.539576068560805     51.015599397162397
H      49.175519296750387     49.890189157894142     49.459160101674016
H      50.289825766652726     51.797998353239592     49.647259060826151
H      50.670208527616630     51.131435936947355     49.214923229886423
H      49.151790685155092     49.511842245751289     50.599505282292220
H      50.957907956356763     50.629990827860624     49.057968290577236
H      50.841257461869723     50.359102657900628     50.315977648809550
H      49.587477836739033     51.264084284977876     51.010023291159591
H      51.281328599793902     50.565160923032735     49.514823331313337
H      51.229394899602767     51.023779228748715     49.769914814419089
H      49.002199911268804     51.173926513095260     50.964896327689573
H      51.192854698604030     50.585656585067916     48.306875948364755
H      49.001488072424763     51.140169155429632     51.745402176726351
H      49.280426844619377     49.775405395661885     48.881901540265652
H      48.535817381969913     50.647468002697636     50.981166012629103
H      51.663697489081706     50.230835479994099     47.961942082828152
H      48.732348951687278     50.202556897863104     49.096036973102372
H      49.757948791750373     51.877045401467861     48.796177694360999
H      50.930862403719267     51.550933167323379     48.650570740525751
H      48.497659938303194     50.793117788106748     49.173126761437302
H      49.417924213640930     49.974584093010584     51.001326480845364
H      51.905500206373162     50.142498746446300     49.319399441248613
H      50.514140239069711     51.166768153374051     51.010638491716769
H      47.969781298243532     50.443921614661363     48.930043382924815
