38
lj38_benchmark
H      50.000000000000000     50.000000000000000     50.000000000000000
H      50.466153630248790     49.681277848011270     50.197045817976694
H      50.303025628989609     50.568748901047819     49.673925801348659
H      49.619145041340943     50.401631344483341     49.896125929404882
H      50.969120448214547     50.093864719422271     50.496960854583733
H      49.524539618037146     49.897436721280293     50.264799481879507
H      50.394846081631535     49.213769755844154     49.583624366074766
H      49.537160953893000     50.695154526263217     49.298010135855613
H      49.615535018755004     51.014866056992325     49.835381381958506
H      49.579719178239969     50.704743278165367     48.570279642218388
H      50.395766998115910     48.520356590143258     49.219342524584803
H      49.396514861168072     49.702629312740321     50.901755501333575
H      49.317641199151318     50.079929652925621     49.315387445736192
H      48.974918114971835     50.283007529735784     48.876901651422365
H      51.469014889960100     49.854182603106977     49.953329851163168
H      49.443813982593092     50.120579496628224     51.249172761244566
H      49.970552787172089     48.479770235156273     49.800300086994682
H      50.273746525533404     50.648911007762884     48.458819675465207
H      49.749220342376965     49.762514318980280     48.810270733168480
H      50.640712398691150     50.945734766190867     48.754714100330787
H      49.451133676869638     49.062086992587339     49.684151009131277
H      49.867416716178248     50.457348737260162     48.979954686604692
H      50.081605868241944     47.821190633148319     49.875322300691792
H      50.015870563938954     48.011507890521671     50.379413386530352
H      51.555969903232082     49.508112432929522     50.513116497217730
H      50.485579058853986     48.985279483471658     50.015936433074344
H      51.346755231620520     50.545116905256236     50.299140421605252
H      51.328639851133566     50.311898325761696     49.399738439879187
H      49.087262027639881     49.486767772514810     49.247956132992186
H      51.944348153224190     48.837338779617689     50.533409451616421
H      52.443230859309601     48.665656942777233     50.771019106266294
H      48.560544279970571     49.875339649578450     49.351235029235937
H      47.997656005162803     50.273418232537104     49.614711752428619
H      49.011394216779749     50.892662414554472     49.242726783792200
H      49.379689948582538     48.181596223848167     50.723223466436444
H      47.473170726760713     50.357348673799024     49.482213841605571
H      50.473264427757044     48.615091727122561     50.466463241291279
H      48.670820066436391     51.457980606128345     49.369936765812064
