38
lj38_benchmark
H      50.000000000000000     50.000000000000000     50.000000000000000
H      49.677463133373024     50.242426248372880     50.476125781518469
H      49.500935402417738     50.717653106270539     50.991741554885273
H      50.182140618838787     49.849325609915589     50.536357200278395
H      49.817227809401217     50.729580004506929     51.387446351413587
H      49.810112488371090     50.660057636871713     50.107476351594606
H      50.129317754879523     50.509038291546815     51.718774334838997
H      49.397003587955389     50.219554756817892     51.029314575314899
H      50.854846048056224     50.210257382415293     50.344120088314000
H      50.488029446210199     50.269195542896270     51.051379348973128
H      50.445463386139011     50.095164229144714     52.110373686275878
H      48.752427754389778     50.069400670843933     50.818003733692549
H      48.236749643557673     49.525203601898994     50.634058826472312
H      49.770183671920698     50.867173465129731     52.133340569836669
H      48.968245165676294     49.608405536055571     50.645133309590193
H      47.765898148182913     49.825534528946612     50.890546994163664
H      50.307856388985286     50.079389702171596     52.855171248252915
H      49.846080220862561     49.995272048983743     51.931755872235065
H      47.251481276381348     49.867000712505124     50.650314510275045
H      50.909797250381537     50.527446928456278     52.146727268115264
H      50.577823641930060     49.235689672488242     50.605617319633026
H      48.413912372845679     50.669436155383593     50.682150945443112
H      47.668224844780305     49.345690832582889     50.347975620516820
H      50.338270801855529     48.807553532951118     50.366958973427785
H      51.001662266704031     48.647906330684833     50.048097736341411
H      47.385138307124897     49.770602126332200     50.100196710457240
H      49.530639361007957     49.410005152365763     52.097528238526749
H      49.958277449429701     50.201204277519203     53.531296982575732
H      51.264182749860048     50.076292893915443     50.825287786690900
H      50.334969537408497     50.451532799862157     50.024500865851870
H      49.521537108150696     49.954347961494889     51.458963165938087
H      50.679746359810260     49.367959398297849     50.112666043604307
H      50.173325371499637     51.139087050424308     51.885133154882325
H      47.743635037188483     50.123972184792201     50.483327244374131
H      48.934326421061066     49.295698491668972     51.870545914478718
H      49.998687881786530     50.798346111053412     50.648681493361920
H      46.787316111812480     49.997974716168024     50.366189882661615
H      48.407504178751118     51.337837749086844     51.022300634719741
