38
lj38_benchmark
H      50.000000000000000     50.000000000000000     50.000000000000000
H      50.433971737783942     50.060932990674260     50.607870666497462
H      50.514584081361427     49.531360863378779     50.297851843373110
H      49.516240076166362     49.374396855548348     50.079602378606012
H      50.115811712360347     49.405107248782862     49.933745900961505
H      50.881122749781859     49.738415721689343     49.819837278642524
H      50.243944371116875     50.322258008038531     49.541639662504522
H      49.597334097063118     50.262167774303272     50.188848690917318
H      51.070172927964244     50.223416742881113     50.903925739429390
H      49.005606313286734     49.134715944975078     49.847676666505379
H      49.267212083080210     49.784134718144003     49.792429783916177
H      50.767242513741635     49.099574979672376     49.799179706616535
H      50.667817897109678     48.674602247915054     50.464250276194846
H      50.861901053880956     50.162736228544816     49.348120328564299
H      50.449829019810430     48.231331038275115     51.074261992013213
H      51.312473630229348     49.898611937739744     49.033162147847825
H      50.299134722611562     48.501029143341363     50.056113367654405
H      51.398542540909112     49.579808562000387     50.858133208331907
H      50.594687982416829     49.358799094002165     49.186123920955275
H      51.423062502122015     48.827630926399166     50.687230656172410
H      50.675779535697416     48.559163450950784     49.206018928973002
H      49.690228411785483     50.948352366075653     50.434324647126175
H      49.091438154895691     49.473837296649450     49.312696415346892
H      50.842515713283525     50.475492390135194     48.740116590312759
H      50.805187990484377     50.454593473950780     49.759566868049156
H      51.011160771357247     48.195589006836883     50.715670009833445
H      51.003453675015159     48.026360446319252     49.712881446531263
H      49.594720015408470     48.760183208725081     50.176691443969858
H      51.142703962181173     49.430868476946458     50.434025561829046
H      51.775131444775973     49.554566198033363     49.134219666100130
H      49.586947578954330     49.045151546517111     50.922859861467614
H      51.289822217235489     50.422266399950225     49.487345696151259
H      50.158967968000411     49.843163660558275     49.345788810551724
H      50.934832013340213     49.937042999452217     51.463340798233730
H      51.247754756878443     50.206124935535229     50.036426880613867
H      49.584670658743846     50.014297441302816     50.686012934828682
H      52.217412744321784     48.988311011101999     49.296089854323824
H      50.474870299986904     51.011698294858611     50.026510514628583
