38
lj38_benchmark
H      50.000000000000000     50.000000000000000     50.000000000000000
H      49.877976776805838     49.965066152376103     50.693054298093834
H      50.341327928816220     50.554315999339885     50.407928199019281
H      50.466353295757045     50.598444803233910     50.906236195852173
H      49.516744728816654     50.523283249591444     50.736848925054872
H      50.119062677516595     50.422389855050724     51.433349914395329
H      49.933924240294736     50.005988939672122     51.914747188614065
H      49.524558245838044     49.488245633117330     50.658210572439508
H      49.960249271865649     49.515670636087911     52.234708321840984
H      49.525511476353159     48.791862675128556     50.401879264193752
H      49.397541983498122     49.202414864680428     52.392378553343107
H      49.431954609679266     50.898910523489022     50.187092658945268
H      49.915052547357973     48.728527734934907     49.858785997032641
H      49.470445319253074     49.955929841976101     50.353762473840007
H      49.245140906639577     48.121551142566346     50.719886229272817
H      49.312076501382663     48.258074250914071     49.918760843873791
H      49.664001121844031     51.219593548632808     49.610371675113811
H      49.768515721492811     50.505122094782195     52.187424065680425
H      50.635606836271599     49.427916834328329     52.553456434922225
H      49.824940759136304     48.342645621997434     50.308459748532059
H      48.827776959171622     51.167544175009155     49.949316096703861
H      49.600687393506050     49.046342248464711     52.976741339463928
H      50.237913508761700     49.871093012545195     52.886476901115586
H      49.269610322681459     47.531313206348926     50.692071063847884
H      49.613815116420930     50.849312303163870     51.437825414809154
H      49.752754253997331     49.116412853255511     51.690458511895137
H      50.176779856174569     50.696384731496337     52.685754084890391
H      49.951498202855710     48.017175387811456     49.581073419079040
H      50.017765706254899     50.482769503136339     49.360843044724163
H      48.935757806953056     46.880546895935055     50.476401974278737
H      50.576650928108791     50.735888586115195     49.939118378036660
H      49.676280585272401     50.104277702705872     52.467250567164392
H      50.406876208740783     48.813225803753809     50.002907828129231
H      49.853264679317050     47.436955750962682     50.337159968343720
H      49.754516167801278     51.142302597107047     48.978556140279139
H      48.972093003123284     49.700104215338435     51.018788042060550
H      48.455194901198084     46.583740950590865     49.943265525011576
H      50.776364960072584     50.600389181407238     52.909467528595570
