38
lj38_benchmark
H      50.000000000000000     50.000000000000000     50.000000000000000
H      49.908285033297766     49.650214440474116     50.381010318308221
H      50.654540315276265     50.155093749709131     49.768168175592621
H      49.585973351494182     49.637855441897912     49.942475662572249
H      49.958134041342234     50.764698747828291     49.923518598350029
H      50.621582438323834     50.715797720866874     49.270408857067935
H      49.317909528471546     49.263324892742084     50.153347338930338
H      48.886653140227672     48.943213688712270     49.897236082560923
H      51.188296853961660     50.487046211773951     48.985286581130339
H      51.473295503125804     50.061646677001264     48.934532622212906
H      50.134931872840696     50.741481232918936     48.977780735202231
H      51.969139071842683     49.550393834812439     48.939425205494622
H      49.837265998746830     50.291244571750255     50.395057187360180
H      50.951887518601637     50.476898243377349     50.111367513707982
H      50.748363398480947     50.181994155131882     48.964948363394306
H      49.699808795709956     51.140624743945629     48.895954865784773
H      49.273135036564177     51.553291906098352     48.461918568620547
H      49.731978032117347     50.413985649358665     51.135886146697892
H      51.352552637035515     50.787001647522047     48.465248350678650
H      51.556584588845865     51.170412087105227     47.890992005533725
H      49.603052821545859     49.313816962479251     51.045905767830611
H      49.787641495197349     49.195249404291893     49.396198150519282
H      49.119046838392038     50.965905405962303     49.073563882757973
H      50.315029545073152     50.833083593642691     50.956666323427982
H      49.116551503623334     51.758384928875465     47.945399344092792
H      51.396632014168581     51.584865743856589     47.492013038614260
H      50.102037634285850     49.353693862867644     49.991364639238014
H      51.493601644009850     51.606911818486715     48.186128049288769
H      50.317821425870036     51.307126072466318     49.034145049814647
H      52.134352062512157     50.842304870782222     47.842452695592939
H      49.695390650339604     50.756866993058878     48.427785643404363
H      49.933456568396949     50.171020150829484     49.368797692206641
H      49.367971688923717     48.719166645777221     50.840681530240921
H      50.423235264720795     51.853781112211436     49.516492926699868
H      51.016344220468007     50.230001770697640     48.249060309937803
H      49.596752225091620     48.788077572039796     49.941058972590092
H      49.972216319819502     51.728419173479274     49.860794998974313
H      49.724427851205355     49.425421257956891     51.737438497413713
