38
lj38_benchmark
H      50.000000000000000     50.000000000000000     50.000000000000000
H      50.404463371110872     50.057279480711230     50.340035939836696
H      50.477141328862011     49.833958567794717     49.889455992632151
H      51.047842765766823     49.994279853606024     49.876269689482356
H      51.602110526811259     50.258549389730398     50.135457454408773
H      50.638311035539182     49.127409078822808     50.201263727656119
H      50.380610271594364     50.730050921258830     50.209663444446882
H      50.130238032872477     50.240437343776108     50.765677472793264
H      51.967810684668962     50.818071101751237     50.172539906787371
H      50.021531282629184     50.275824644001183     49.305142708147272
H      52.235581960652958     51.374269944833188     50.471643143414582
H      50.544665843024035     48.642514541697167     49.579908381194677
H      50.152209282681767     48.222874100293730     49.499338506303964
H      49.880437552538638     50.964502491387805     49.001769340954361
H      49.838285617149801     49.163907277240710     50.200521278511928
H      49.487720895646440     49.919935777736363     49.791010640655486
H      51.205331939457153     48.824004648565676     49.431504843300587
H      50.945451977954491     50.585777100940376     50.027979003309419
H      51.312406377001814     50.304654083154055     50.664439587494961
H      50.458616982499912     48.615111209817819     48.889916681655748
H      49.251790194291821     50.572772097019943     49.807115112929537
H      49.638607948110860     51.146853974782886     49.923650679123803
H      49.319163952006186     49.499351396985126     50.481474167079270
H      49.362848633960219     51.761235493270377     50.250236629377746
H      49.008609433263928     50.013112501454565     50.937440498880214
H      48.680163268763692     51.973471011487526     50.128659728016288
H      50.278660968961894     49.181352314357731     50.771614673779005
H      51.185684335389105     49.468869579042590     50.462690081967374
H      49.201044903838259     49.560051017461213     51.335157528104453
H      50.269656192581202     51.516687341040964     48.783570486459283
H      50.249165579611862     51.230485093353252     49.480964484128783
H      52.586314072234025     51.730879102981667     51.079555643723069
H      49.022505199018795     51.706871927306430     50.901668388437592
H      48.950337997518254     49.120296330082411     50.659086328479674
H      50.536799811630871     50.061778757123179     49.227038031473782
H      53.012040815160816     52.001403607751392     51.650753508780596
H      49.123373138849146     49.607573703149818     50.018844804203390
H      49.860594845660096     52.065777360472246     49.103205939203825
