38
lj38_benchmark
H      50.000000000000000     50.000000000000000     50.000000000000000
H      50.581525815553299     50.554303335217803     49.956885987005776
H      50.703439129761193     51.273556224891429     50.018757482883586
H      50.432813598979635     51.273477580585215     49.514092642272807
H      51.108927117515272     51.688712951196408     50.233302692817269
H      51.157577537218081     50.135840764880790     50.051282499494008
H      50.307673787422104     49.917106644685063     49.464547285266157
H      49.956310471629223     50.698475673866710     49.688065742436741
H      49.556012298269124     50.384866735043005     49.625543162807098
H      51.068971927815774     52.102251382633519     49.652711885720485
H      50.313838930240067     51.088885964356415     50.683431374305229
H      49.306619257215040     50.011963403456726     49.198879782202518
H      51.621039608931461     50.367614202498821     49.850839227986711
H      50.835552659363650     50.781709746624138     49.318534767509533
H      50.844569037924799     52.275243694319180     49.231839828888546
H      50.995662221615341     50.883218320141538     48.581630788782448
H      49.186170277375396     49.965746201164016     49.939092056305597
H      50.510285128335234     50.357000046240380     48.374699378614380
H      50.477837173874818     49.216292119033049     49.465593461026444
H      50.981394288818393     50.436374148548879     50.585418750532114
H      51.265139018867622     50.304591371849000     49.397645157045908
H      49.909521910707049     50.877398300634553     51.267186834751236
H      52.112587979819395     49.933514848175918     49.833733160376809
H      50.128794242797504     51.016202848291250     48.137650985025701
H      49.380472510829776     49.246721943936024     49.385887738817466
H      49.622218732071161     50.997653065196801     48.149346016957132
H      49.372348205212532     50.998370419430174     47.585785489278550
H      49.422495799872280     49.452692783369891     50.364275618125347
H      49.596722738863697     51.443726412992859     51.334616265689718
H      51.124507522752161     52.223016007246180     48.807109557737320
H      49.700018252291436     50.493091901256854     50.641649127578091
H      51.336873802100939     51.690539320016704     48.721347518702594
H      50.927638046089896     49.902610897176977     50.691334915453609
H      49.788659255411233     50.650690387815644     48.522336270859824
H      48.866347709250434     50.353382704228750     50.065698741661876
H      49.287884004570728     49.270249757462558     48.835810655423245
H      51.006443879061266     50.812266822562549     51.129498990754989
H      49.546978461253111     51.092830668503872     51.920841917628081
