38
lj38_benchmark
H      50.000000000000000     50.000000000000000     50.000000000000000
H      50.044194027594671     50.685531735541332     49.844078101590405
H      49.879927234304624     50.848420362858768     49.175975219307489
H      50.641714530272893     49.727328028589810     49.598218375673817
H      49.796507067866415     50.329267737400230     49.071171958561806
H      50.778778391706808     49.642873090696284     49.091138027515569
H      50.206299511147137     50.686802819123287     48.612111841392327
H      49.033188172394105     50.432318492377497     49.298059314772850
H      51.354386171766940     49.617426478197409     48.912381142834519
H      50.158060117125153     51.300069757606877     49.016412569697380
H      50.643689200708728     49.239735309767127     49.763409485704244
H      49.497937918093093     51.050343372279620     48.683852758664472
H      50.020778065208908     50.174888059578429     48.514085701344300
H      50.135349073182354     49.130611495310021     49.903468784245426
H      50.440260251538923     50.422224131850648     47.912315505080592
H      49.563614842757126     51.575174576032929     48.827332792442277
H      48.566060088758015     50.540817257111044     49.121801631868628
H      51.435339178662353     49.286365803970980     48.548659804067221
H      48.222380785534256     49.955344229972020     49.551357866180894
H      49.714744160855766     51.354792613170048     49.402504982510656
H      50.123111847254037     50.712051705566196     50.408358899636909
H      51.130050196338587     50.257232226160703     48.631379207641551
H      51.161088901925666     50.095833898249559     49.233582981689807
H      48.348912033668029     51.076385357858967     48.946112405033389
H      50.560065545783992     49.827769229972702     47.439341238055590
H      49.023255791763873     50.494320615299813     48.740768489953247
H      50.403058347558279     48.970829104776335     50.349772665351480
H      47.795482206418214     50.650430201875899     48.904624088240794
H      50.114563646737835     51.238049227660838     50.233948570315036
H      49.374413140915870     51.182255415817039     49.970721363104509
H      49.299519409614156     51.712230582230781     49.638918906446875
H      50.538338934196858     51.167153929835663     48.125589675341331
H      48.111058582360094     51.764714427535843     48.626393311941207
H      50.401317805764599     51.646028441504818     49.725622264266114
H      49.732623235483054     51.633677449141267     50.744282667057988
H      48.675160546806012     51.636316862429283     48.401324356847141
H      51.773124877910895     50.265651411889749     49.688003499539214
H      48.299258496982596     50.327083280900837     48.390576170397132
