38
lj38_benchmark
H      50.000000000000000     50.000000000000000     50.000000000000000
H      49.842108928393237     50.517319298577213     50.485745140248419
H      49.766569791797714     51.056147990504272     50.057416366354857
H      50.002579760904631     51.288371710320725     50.458806941811076
H      50.161647092153579     50.808019530022939     50.941781075277092
H      49.187305751574591     51.298276969054470     50.150111305378289
H      48.829778920527438     51.994289557569978     49.965668744571566
H      48.696862898211990     51.518336611551867     49.532327950765477
H      50.399818439593560     50.356798584294921     50.368147427992874
H      50.343904674530378     51.386655734865244     50.842186030960747
H      49.066023801252918     51.845282022964710     49.221995043430248
H      48.966646367790496     50.585955015353697     50.116002940572763
H      49.351931500176946     51.439673202194648     49.225609992138402
H      51.103162814162047     51.563343413851705     51.034100659935739
H      48.623261724949167     51.301192734826536     48.936696418775661
H      50.027505722070181     51.628655640837579     48.907074411134623
H      50.461204353498651     51.959019566131033     51.277988346645145
H      48.737178688571163     51.774737572651297     48.374172924081897
H      51.064463730768182     51.679711997909365     51.685926859859414
H      48.881466804121970     49.917584161690236     50.376546472477990
H      48.250964797217030     51.234542391838879     48.286598565551003
H      51.220141507830299     52.221831614787050     51.495708659132362
H      49.989996140103806     49.419895969167591     50.364713393401928
H      50.115037275571908     49.038636204923677     50.835733690201927
H      50.147982257077011     51.548944006741642     49.408655255711402
H      51.452822988750825     52.109378043837914     50.683113200227460
H      50.701882830542822     50.713819307208297     51.303655970858543
H      49.768311364115128     52.178224988870859     48.813063604515790
H      50.501488778346037     49.448362836857399     50.199560933846172
H      49.124895862141123     52.557784099624243     49.818159148896711
H      47.701136734483889     50.987656684426973     48.453371509279307
H      50.330280005937396     52.234220438874338     48.461636292177644
H      49.971107116085712     51.984836849114899     50.995961426885572
H      48.352102777785433     50.891934864130938     49.556220514040092
H      49.310184704755770     53.010463897098148     49.687149586650285
H      50.844704209699294     51.318913665766004     52.348253188089139
H      47.509346725141519     51.607101260334389     48.644867311942058
H      47.887903847896254     51.303056302890354     48.868552714847375
