38
lj38_benchmark
H      50.000000000000000     50.000000000000000     50.000000000000000
H      50.178867640515485     50.016609835947648     49.287534212776251
H      49.649893180526867     49.962070333224567     49.487873641112834
H      49.801115973386118     49.270690762763749     49.646951823061165
H      49.293910881832645     49.202475770979035     49.698331530270927
H      50.017438608153242     48.924179968208811     48.976083375033085
H      48.908078065207391     50.012256328875871     49.403868672926421
H      50.248210849397907     49.808234143927336     48.727386965156946
H      50.623685690544775     49.742300766806473     49.137660852847887
H      50.515185228213689     49.817985049093942     49.996370729710613
H      49.191540663564531     49.170507048671780     49.066321711400647
H      50.207100224956555     50.398281787373612     48.597665572074241
H      50.364132275032183     48.692787468056871     49.639982110676726
H      50.983565590782412     48.890712288037406     49.201728601850185
H      50.709212747588111     49.267904811694486     49.970143849758635
H      50.770223203992856     49.975093928292061     48.520430433232612
H      50.883951539606592     49.614220216040849     48.096993991558342
H      51.497258233213330     49.154110266759808     48.699308114880374
H      50.986532940330704     48.470700760215713     48.817383828610865
H      50.560032440447124     48.361857493223539     50.053842487213565
H      50.091409262458754     50.938589928137397     48.379627760756179
H      50.624691249086474     47.901884146231623     48.932602932975101
H      50.398966370214424     51.234668352890168     48.952737524612559
H      51.195349741085096     49.818275116784186     49.876732835191049
H      48.957889161761273     49.523298677610455     50.351006249097480
H      49.080410998605267     49.042007143102275     50.323508364780594
H      49.102794096575451     50.238193545193184     50.416107106013129
H      51.497573753637141     48.752335512639789     48.092826228004668
H      51.140203513299873     48.076403210144569     49.619136420766985
H      51.052564531312143     50.322199203259757     47.986712734149243
H      50.546397521280639     51.337205001460497     47.919943770053365
H      48.809803565588545     49.607840256856832     48.682130403509682
H      48.509952966977792     49.192232127919702     49.773679589036938
H      50.018002823878547     48.356132474392012     49.765165603675548
H      49.392313438085047     49.850667870480976     48.824150852025959
H      49.771816869261123     47.879590941245468     50.091458148832096
H      48.578393368066990     48.862598194191953     50.264901720319173
H      49.417090875375983     48.691642149897255     50.875553904115741
