38
lj38_benchmark
H      50.000000000000000     50.000000000000000     50.000000000000000
H      49.669211149710236     50.620904679753167     49.699405530865569
H      49.928854114776023     51.163190715694647     49.295096838907646
H      50.090671897375749     51.373108923598082     48.816392559250559
H      50.275677309731250     50.726544641432334     49.946485174952507
H      50.622706110434720     51.138370717516111     49.551056175239779
H      50.956476171172426     51.806735951356153     49.289590070631938
H      49.828318083116301     49.938803535842169     49.453949761191694
H      49.775569328248928     51.032047564157502     50.326848758391101
H      49.655389187566193     51.688238911702399     49.042843886493877
H      49.553491772341438     50.762925328344451     48.739543158687411
H      50.847596800788558     51.021417293094416     50.000884797876324
H      51.139338837071307     51.484315767971495     50.449528863134852
H      49.817529741912281     51.149261914722842     50.881988362415477
H      50.600908299322278     51.539933722154366     50.715766223007741
H      49.090367864971952     50.856832590183686     49.633034910827270
H      49.485592597440082     49.224823078054619     49.560687716225644
H      51.088573595625050     52.113817311799970     50.728080145321336
H      49.521087382275915     51.480336212015970     48.389752236998383
H      49.245103657519948     52.118545873795398     49.571487048194648
H      49.100638102960872     52.707754901733828     49.342394925278072
H      51.115535443525722     51.292012213175440     48.959180628872183
H      49.425368063568456     50.979989469054722     48.069963130250819
H      50.057728809185328     49.880680007241949     48.775489716465003
H      49.868085608890304     50.507999809083337     51.181017802833104
H      51.743306990956938     51.689155802505653     50.559548821115044
H      49.098016685927675     51.126325346079291     50.720991548940368
H      48.760858659391992     51.397625839122661     49.783685815048976
H      49.185254339927397     51.013745740620351     48.997907460632369
H      49.766515570509526     48.647753377224696     50.006012690429998
H      48.548962046263043     50.869726104361121     49.311694986670616
H      51.250565847332744     50.797801920041785     50.415636492014897
H      49.464179289305257     49.393183665594712     50.234843078139399
H      51.371454398679141     51.213567978147495     48.229501478356369
H      51.096346860359034     50.361288315117719     49.902500938055489
H      48.553315355557821     50.874381081921122     50.927613649855367
H      50.868259360379732     50.708105241104221     49.123712353727022
H      48.422474747869778     51.385243026511432     48.715318838808550
