38
lj38_benchmark
H      50.000000000000000     50.000000000000000     50.000000000000000
H      50.692013422720301     49.963411931743259     50.120116821920249
H      50.859140238562645     50.443226009538733     50.076058134812349
H      50.181645868538268     50.488925684747699     50.182053798259638
H      50.481500191102171     49.186640444404659     50.113371771280562
H      51.209024817734424     49.487112018601501     50.013241857604250
H      49.810166268702531     50.859571856085203     49.916559572946952
H      51.539038805040235     50.790067099781410     50.087399957096920
H      51.885450871176864     50.301883959459744     50.343896381933249
H      51.450882441538624     50.280345524346082     49.824044885464559
H      49.456269005235349     51.381777324607164     49.738871388021415
H      50.331191096309141     48.887501565111933     49.465154835350837
H      49.581728166620003     52.113367721453287     49.452082010674324
H      50.108336675163827     49.415375589025714     49.706871990324551
H      49.111438308047994     51.187382836198879     49.241741264038595
H      51.061534883760203     49.438411689195362     49.401634065892488
H      49.502887118971024     49.694392020738931     49.501974167982560
H      48.992896777996748     51.617406879488222     50.243288657220084
H      52.377338822133723     49.899277501680757     50.667259483762422
H      49.956148446166871     52.045913180850029     49.770934575327644
H      50.220998594096919     48.740701862416820     50.147230254585743
H      51.454254824997705     50.868356308577695     49.417909664942449
H      51.780102775534722     49.846347326545384     50.791663415108836
H      50.401373786519578     48.730916082711445     50.808190881564187
H      51.702302029430776     50.297813546731845     51.434815561523294
H      50.483758822648227     52.444232194169231     49.754208609498519
H      50.840571869524048     49.036152798010932     50.540631813552402
H      52.716197980627378     50.355622495188562     50.425667362186580
H      51.896069819535910     51.326909409279736     50.148230010707422
H      48.425779264469483     51.657259655927838     50.444226712425298
H      49.937803310468155     48.471153784994691     50.874678175164107
H      50.287982144524506     50.294141407709340     50.627088410280308
H      50.299713485422117     51.977274061062289     49.053699155581761
H      48.988456704312476     51.891827869157865     50.695768037246928
H      50.540440512470141     49.660391479700351     49.001500512011368
H      50.536742892511775     51.471934370321492     49.612685007966562
H      49.541666872152689     52.378659917277965     50.388234323539606
H      51.849380060596346     50.284889248734132     52.019463517349600
