38
lj38_benchmark
H      50.000000000000000     50.000000000000000     50.000000000000000
H      49.739207026729062     50.090500195261782     49.367070605358606
H      49.311427400006039     49.450798906740978     49.327675272530890
H      50.418919714666394     49.627655421667015     49.968031407037678
H      49.918392489346800     50.134160403718383     48.786862706635432
H      49.484725958042659     49.797166697209533     49.714861550887271
H      49.770277625129609     50.546211960037752     50.138468189975612
H      48.747175509128830     49.122461008576579     49.498520614666390
H      50.812275648536300     49.424250035679464     49.584371864131413
H      51.125800055680571     48.939182411075564     49.667784246296513
H      50.147292476563933     49.105177430174365     49.581673473136995
H      50.361037780258769     48.329982252063957     49.595276789767695
H      49.187507958261520     50.849029319669121     50.152227364020220
H      49.594419063217664     49.567924195697529     48.600706405498769
H      50.264061637900660     48.727871292758707     49.200952855906323
H      50.584793467500660     47.875207119264132     49.930903235764703
H      48.975610966364385     50.941507187928075     50.643986955765961
H      51.337344539853959     48.117164924069996     49.912442938196612
H      50.109652522693295     47.590771782726335     50.270969051283920
H      48.316438833884717     48.493023447632815     49.749656163932023
H      50.193621897392468     48.846886590382368     50.187696379692916
H      50.874183336255179     50.157315901218851     50.045941069767359
H      48.904608562255007     50.207712599163393     50.132922409068044
H      50.155860045378361     47.337462931100461     49.725609709775220
H      49.279533006058237     49.485185222968013     50.126432670676976
H      51.439345035631071     49.675070042635156     49.967207497592639
H      49.956974385986577     48.353123123012217     50.331529088248928
H      48.579047854075313     50.487009439424725     49.787693602579900
H      49.829283649896553     48.343405722605503     49.373302398320035
H      48.215224284688922     48.633755259264689     49.097806231988820
H      48.419798740569718     50.000141645594063     49.672589302936636
H      47.814956033219964     48.117199799518666     48.729760260282234
H      49.449818213810119     47.264657267038118     50.204953306611429
H      48.908673439268895     49.614533791736534     48.900356096244302
H      51.956331870191256     49.918525499218006     50.247424294516279
H      50.469531100978273     49.483355177519741     50.611221118815472
H      50.580407512322303     50.049855393675912     48.881375189112546
H      48.998064996551733     51.449779929952854     51.047466401011235
