38
lj38_benchmark
H      50.000000000000000     50.000000000000000     50.000000000000000
H      49.735183663900457     49.360162222636085     49.878393071364215
H      50.081405724336612     48.738051838945438     49.739432905023548
H      49.263181947348670     49.271456277025329     49.462188213573882
H      49.511277538818490     49.018997278315723     50.409245373517813
H      49.395451500590056     49.983356060878087     49.180991934853687
H      49.364476068613591     50.484252296279195     49.726604168481558
H      49.989719487408976     49.430372951349888     50.585681728801269
H      49.132609946800571     51.051427277618188     49.553338750482951
H      50.841139579509068     48.504741686999644     49.765292056592223
H      49.171159210007779     49.429201898806340     50.675968688564936
H      50.621603485493559     48.804538056423915     49.348176200685863
H      51.344259399476549     48.623389748224348     49.180749245757077
H      50.160200363004961     49.170458412121341     49.067321086593694
H      48.701311699968002     49.655827756299310     49.714463070042584
H      50.467093827611805     49.427416181075365     48.756069698150043
H      51.032078299756961     48.118560995792208     49.309061281691967
H      50.830941226863352     48.344285821583355     48.907903961379780
H      49.113305209382460     51.639557375750208     49.472770966673146
H      49.404561299015576     49.813104492954970     49.765846633627106
H      50.111780695652890     48.367893139184538     50.082253122016645
H      48.371680088618390     51.333691855615093     49.541405828466210
H      50.412981068352117     47.773402503543117     50.028312284984807
H      50.458818066493670     49.489580172547555     50.748104369314838
H      48.953263700571810     50.181447118204289     49.574126689675097
H      51.121324810784820     48.617627407392071     50.281426497397028
H      48.327303909007803     51.890410426166326     49.482694866404614
H      50.257612752904386     48.153672788355280     48.970208721546591
H      50.592333067798180     48.993339659534776     49.861024669117967
H      49.915764024256063     49.260248083468007     51.063042181844608
H      49.749488424426161     49.556314667179379     48.607649011396020
H      51.782744224255744     49.253305177622586     49.037994338075251
H      50.411577456350798     48.670033472924437     48.379423960205962
H      51.778598472086713     49.302849095669835     48.468210341054323
H      52.246339160752605     48.900788722785670     49.185217596319319
H      48.578138769562237     50.137563231913241     49.135555518291902
H      51.284506035237797     48.786893352041702     48.668669127955205
H      49.888506698166019     50.739098359795420     50.044106361307676
