38
lj38_benchmark
H      50.000000000000000     50.000000000000000     50.000000000000000
H      50.132482394268671     50.114417169691016     49.362696414379627
H      49.653629336129299     49.574877191705447     49.551065779960012
H      49.794722596020129     50.253477351381292     48.721510842322033
H      50.579895427116931     49.657964999004321     49.696907292550037
H      50.631235240019805     50.153382406272392     49.484152286374169
H      49.920453775249307     49.689509396118261     49.009887066529600
H      50.373252164079993     49.166192446827530     48.945049744309294
H      49.388192051004715     49.148230444351157     49.328076651909669
H      48.788292771527210     49.505007350057518     49.006918088970615
H      50.235612605481364     48.857386949024963     49.346998167171982
H      49.849748522705454     48.263577034002552     49.124819528384265
H      49.028601337687256     49.635020104749479     49.731456305235625
H      50.733381007273863     49.360786260905030     48.472262269282339
H      49.601977443596994     50.156458396741463     49.247646159601338
H      48.867404887252810     49.988687526797641     48.566120202913147
H      48.821678351997740     50.365632862492262     49.275281623940089
H      51.160274005872971     50.288039285448043     48.940027894972651
H      48.784645632910120     48.998218935432874     48.766578205058877
H      48.484937502412862     50.784283539862692     49.084899006194384
H      48.696152145784232     49.280806547840221     49.988860043206401
H      48.187215276855142     48.899627016055504     50.078010531034927
H      48.019686330400454     48.806725015325036     48.860202332928310
H      47.856519836440093     50.939525095064575     49.233410508135456
H      47.952316988046675     49.131181913274332     49.296566193639627
H      49.581355608292519     49.558894978060579     50.502358904909869
H      49.883861234948377     49.967037468658454     50.616786408277008
H      50.120752060927799     48.697161125621221     48.581739642293513
H      49.320911794108085     49.775473489588961     50.116570599650288
H      51.243544653068781     49.394876241694320     49.751806594925455
H      50.696417933760834     49.755789125745359     49.118495132704716
H      49.332856685941707     47.892290210096021     48.896472677760414
H      49.181005299548950     48.734512098018442     48.465660431493646
H      51.877956541039666     49.338345079797840     49.372572039721526
H      51.315341716359541     49.918576063070681     49.295727912847966
H      50.274975350102785     49.781648126739050     48.051878410480832
H      48.042546973689007     49.266730869225228     50.579441219775916
H      48.679486437045355     50.326879263383852     49.773994847453096
