38
lj38_benchmark
H      50.000000000000000     50.000000000000000     50.000000000000000
H      49.248198194687404     49.860760748547527     49.953677065382941
H      50.428592666333863     49.577256507879000     50.208548935533202
H      50.219844356869800     50.681231644882331     50.210541225709179
H      50.572221040189199     49.660767540601441     50.949181446145737
H      51.320000702129867     49.669920666980033     51.216975823606553
H      50.030748992971795     51.041185961583864     49.764104097617199
H      51.913527596392207     49.464399540083896     50.977815885340469
H      50.832118053530074     50.654380693249216     50.529165567232063
H      50.328153019308367     49.161675492909289     50.534542622667189
H      51.171636671622593     50.045127661810675     50.769971821234314
H      51.425891233303560     50.997232969994442     50.430528871959496
H      49.568514687373707     49.737125253298892     50.427627288975103
H      50.231181513044028     49.020922560549529     49.977277863030622
H      50.111354266070663     51.692010829543158     49.593715045242348
H      49.915378815764392     49.411394809448041     49.921874664775608
H      50.424998922912835     48.366392265467027     50.495807213821053
H      48.807667903253495     49.567809662611268     49.490751540885427
H      50.621376907130873     49.771592420996541     51.458434963614465
H      51.718241080821748     51.649859098741352     50.769702324878814
H      50.055503309747401     50.686350615386097     49.379583383059995
H      49.542252916389351     51.742076677117048     49.079933728036032
H      49.863957108820991     48.557908685156072     50.419127507599001
H      51.170548085218357     50.093844821561575     51.662994507028245
H      50.656233977534640     49.194449505279856     51.663725466840447
H      51.444955435767596     49.504317206144343     52.004033615511887
H      51.928791573855591     51.619813828401782     50.155499451943598
H      50.129301798195257     48.637463278949397     51.680734765484644
H      49.533817769041079     49.054283586111346     51.841976817777180
H      49.536350139573329     49.968687122623820     50.959875047986117
H      48.357969769209930     49.493176004437160     50.111013724566639
H      50.982972909221324     49.249726754913965     52.277419833695525
H      49.526976963243428     50.392023044740398     49.237044469747531
H      49.688014739553452     48.462233852661122     52.250563568068110
H      50.730711701859818     51.484641546947053     49.803488993057982
H      48.587051734115867     50.301647127383788     49.435316207805727
H      48.661100122981857     50.504842130353822     48.734158578094132
H      50.413712709052717     48.000695345106671     49.940408434520698
