38
lj38_benchmark
H      50.000000000000000     50.000000000000000     50.000000000000000
H      49.857532625521110     50.042712344235895     50.766668399918174
H      49.747691477847077     50.193805051661350     49.559344821809326
H      49.563487515439469     50.274705757484654     50.328048464052038
H      49.185470602072144     50.299165692461656     49.532027815517580
H      48.975630083972277     49.826308856620699     49.209638422608322
H      49.170697904065342     49.059847210048417     49.337187526454336
H      49.720479871213826     49.132076530583355     49.865370989416206
H      48.935257449286290     49.857060529073081     48.492795055242837
H      49.192175064558555     48.824393842416136     50.305183241774607
H      50.122825507054237     48.773899767284348     49.814140929333803
H      50.055211703037713     48.243031418184145     50.087421977385382
H      49.238092691521921     48.403731582047492     49.421403304175463
H      49.178537944570408     49.575801095308172     47.906950240687955
H      50.181755034812454     50.408419677150157     49.437797742190810
H      49.186686855512463     49.782216465092681     49.799493420718051
H      48.769805457028788     49.367586027217435     48.311857032845658
H      48.408698380599589     49.714691449207855     48.276408290722365
H      47.914710227156654     50.200478681648853     48.163798166788553
H      50.249493143890547     48.741751515400544     49.047671866116914
H      48.858765627824027     50.124156675224135     50.274517204318926
H      50.092242552185695     50.278186562590953     51.220302093591471
H      50.380910016163597     49.696262893376037     50.293507906872044
H      48.499879013777146     49.102363915039028     49.508500605320208
H      50.124786417776264     47.698766251823692     49.570002737005709
H      50.342947823062460     48.391831378185074     49.523817725872163
H      49.669498268239252     49.101226690728900     47.558555149829829
H      48.679831538829902     49.337685018686223     48.945294706758375
H      48.696021822046895     48.108104808865924     49.765646866301843
H      50.807035523620016     50.139389532002248     51.252140529702110
H      49.825857691456470     49.564636087533479     50.196413070895019
H      50.824414726476178     50.063123788279682     51.967353477378495
H      49.888695913647844     47.751256885313708     50.377710721611301
H      50.651550706626750     48.146906631263441     50.009542020101499
H      48.385253844597585     49.743395930394051     49.832875938139921
H      47.651934736123025     50.221395815930599     47.635735854216712
H      48.509957395483070     50.052370015156370     47.864256683816727
H      50.602675410985874     49.135168516812371     49.299274391012901
