38
lj38_benchmark
H      50.000000000000000     50.000000000000000     50.000000000000000
H      50.127758264330858     50.219100482867979     50.471456151002194
H      49.467467315006729     49.612211854273831     49.876134967372955
H      49.145324704117485     49.000482577763890     49.933464970783326
H      50.604690886674099     49.852458210010070     50.390619960427159
H      48.741681340796099     49.192953799832821     50.332396444168495
H      49.460161624072292     48.771461492135273     49.404050433598293
H      49.621323249800305     49.987569700341616     49.523200332487463
H      51.134486317645667     49.890817288942586     50.949622466693505
H      51.486064904013588     49.211158779531480     50.715348807319678
H      50.653429340941955     50.130101544288699     51.195338520125787
H      50.376241710879036     49.429828936056843     49.615914836911770
H      51.769659083395737     48.829666003587299     50.429973345368964
H      51.104273200904338     48.784387945581500     51.150210108516397
H      50.189539101097573     49.900538548090637     49.377110212299741
H      50.281767460607433     50.800224214797574     51.038534418194850
H      50.796324009804430     50.125949925850030     49.729704994886049
H      50.713376367096330     48.606114001757462     51.646104549956313
H      50.488596323743721     51.272797332468180     51.244237402891784
H      48.464100510420380     48.700900175483611     49.665895666101150
H      50.355545357388358     51.640360144653407     50.702316341604046
H      51.084410214434442     50.925419360518376     51.389285110524291
H      49.666825492028458     49.603522775434755     49.056459316245679
H      51.457259686011284     49.685109447407783     49.700150543546258
H      51.466017492093833     50.288420280688364     49.864248717601903
H      51.671992442407472     50.397882379243761     49.115292653280576
H      48.570225213492549     49.526423867655836     49.674062957419807
H      49.972111728566617     51.341230553063845     51.225434678873803
H      48.856266767930038     48.551196054292440     50.586744428436063
H      52.343769098088259     50.390777853813390     48.839971714758676
H      52.112000500705498     49.759051658415046     50.119809056552413
H      51.686761597881691     48.593866753706337     51.486136880811628
H      52.329708738841894     51.078033275205414     48.792707625324439
H      51.072212614667045     51.930645922891003     50.831424883774822
H      50.961756665458040     49.101597389965050     49.677038912398871
H      48.266744772637701     48.438889975776995     49.283142012203207
H      47.861089552881197     49.325819171774242     49.711605265884472
H      47.323843268647970     49.235036877189970     50.158733741156254
