38
lj38_benchmark
H      50.000000000000000     50.000000000000000     50.000000000000000
H      50.069273830543494     49.533927947660416     49.577540729183418
H      49.563419093910980     49.973732925001180     49.175251957319702
H      49.293661983394436     49.850921291820846     49.977635088132033
H      50.135326084475139     50.784742891704234     50.003276264983342
H      48.776696163672995     49.346249960821005     49.749495900210356
H      49.988582790950417     50.351693418889091     50.563771415253662
H      50.201715831605718     51.022455470572268     50.577405498819026
H      48.329838961261522     49.137706233681143     49.365560129834975
H      50.453198221308249     49.160321017986718     49.997908487975394
H      50.212484209097155     48.530054432175753     49.619302170878839
H      49.915682272066697     49.839018681900662     48.710211384586010
H      49.568231817431588     50.933720978400480     49.550060332253160
H      47.855190135082729     49.223763257268359     48.838182060600005
H      48.950050985158413     50.129029090362089     49.203177097147794
H      49.565417575255005     51.258897887288278     50.256625839135083
H      49.647515704883894     49.121076232748280     49.881069143687085
H      48.553910918898183     50.023692853694243     49.850579558950741
H      49.033327182053469     49.663682647276367     48.912272599356236
H      49.021066994581936     51.690188700722153     50.417927282096883
H      48.896536888380446     49.463726502162267     50.335978295106273
H      47.817358029414955     48.553032729754833     49.209025338459291
H      49.831136746615194     50.010823034697282     48.024447620991374
H      50.366311136445795     48.651442888275142     50.522840091255993
H      49.730026090965183     48.727522359684343     50.913623156321570
H      49.612640122788733     51.994623116813301     50.502652509356480
H      49.245292464766038     49.156463780899841     49.217888478750069
H      48.556181166416131     49.321914921819918     48.868480812912502
H      50.039861828056125     52.340064861233770     50.232359413708252
H      47.486760416823834     49.581636907139519     48.650228574655870
H      48.043032335712532     50.218973569660875     49.354933078105738
H      50.624569389230210     48.406307822438585     51.004710914790465
H      49.370390896948066     51.825436982103390     51.038906370873740
H      50.512471620940019     49.552013094522714     50.684314067546083
H      49.190311461918782     50.089618210270508     50.422058951612698
H      49.995653675976314     48.177322489184817     50.596219009557281
H      48.481913540953521     51.630195864173629     50.799695292236215
H      50.368942765333060     52.543779227846294     49.730477111763008
