38
lj38_benchmark
H      50.000000000000000     50.000000000000000     50.000000000000000
H      50.219388157183033     49.832387466168335     50.750435288365253
H      50.272194299231920     50.405338782587599     50.328545722418625
H      49.424008313547830     49.897036219658901     49.940664650836844
H      50.980987699479634     50.273598880186881     50.094808868220596
H      49.196964048722492     49.138604126967067     49.820764775665978
H      50.396536529923736     50.373308127908786     50.862696373913458
H      50.960093986283951     50.735909616597858     49.605038367510780
H      49.062330955840807     49.144265605957067     50.607460313408460
H      49.147122768608554     48.802715932907269     51.073446466136424
H      48.999512633394581     49.763583527153138     49.403769653469666
H      49.008844858695390     48.503725886558087     50.337776524231209
H      49.341934470870427     49.586269910388623     48.822319636219170
H      48.601175838375276     48.738679484524084     49.838491049397149
H      50.325042205011556     51.122804171886187     49.787391032478318
H      50.257863213365617     49.791379338528849     49.569450434197329
H      51.272873515261288     51.144739212565533     50.179488616931060
H      51.376452208161538     51.914636554293743     50.008385545039566
H      48.548892909700413     48.897517960979677     50.328208217397439
H      51.828089249161501     51.733816966925367     49.602927711502055
H      48.925562666959202     49.156421188163463     49.242754849451714
H      48.841589973099900     50.046460801367083     48.968182022238928
H      49.445798980807155     48.849108966836248     49.416298348227294
H      51.711276188726366     50.449486291705405     49.808638574727986
H      51.050015912153597     50.138239421599401     49.596310911730228
H      49.287666906671802     50.010246430907422     48.186368534202877
H      52.159863232110048     50.047815646576503     49.893567518519461
H      51.694420493392272     49.933692542891144     49.179003473095158
H      49.582882634297093     49.571529643352150     47.605089671004855
H      51.854300322767692     51.704989690899367     50.187344802014486
H      51.104290511776597     52.206062167754077     49.627511335699701
H      49.571170416813864     49.237531716428371     50.169320844972006
H      48.528946031444981     50.285025319589025     49.421339239996271
H      49.313704022848754     48.306057864338307     49.454366132753023
H      50.481311345873415     50.715584368833426     49.461527950969121
H      49.477436132213484     50.239269068016249     48.741974791585065
H      48.185751957525781     48.375159434133252     49.328631767626362
H      51.320921281576119     50.913897703566171     50.839167655113670
