38
lj38_benchmark
H      50.000000000000000     50.000000000000000     50.000000000000000
H      49.725184790381689     49.447590683757042     49.623498403164106
H      50.077220149968916     50.625575924430493     49.750209870797327
H      50.218445307283062     51.213219375456298     49.753427398715637
H      49.546973459644235     50.360096723398989     50.208908717433822
H      50.752899498688315     51.533508905719557     49.506280978259383
H      49.880240631756109     51.069284395402939     50.271844182448824
H      50.516236688283847     50.184932752812166     49.570044467767950
H      50.565420478081258     51.535990967387846     48.919132726106568
H      50.052443783798267     51.415740092436877     50.812054337001229
H      49.304631068771123     48.887276310487252     49.985171974409710
H      49.893059907964137     51.298863390644073     49.208926801008552
H      50.301730658197812     51.108334283571033     48.997815919265186
H      50.056815736663900     51.901494203700324     48.903801350790069
H      50.033920336440985     51.637714625690812     51.299432458347447
H      49.329811537566727     48.119786097899407     50.158891811792415
H      48.929287159162378     49.955979463294355     50.057024110714202
H      49.208760169436253     49.548730174166380     49.066248088968635
H      48.447238592307151     49.559546851159752     49.666318721118571
H      49.898318636253109     50.509944666916880     49.127558545027156
H      49.084333478644190     50.456923607962992     49.724242887426790
H      49.517944364150573     50.476009666862005     48.514047781821340
H      49.270780576849738     48.613962499480699     49.379437015607188
H      50.763149357902194     51.713179593086750     50.006040033357735
H      48.550187982180191     50.335363254790309     50.240270097109857
H      50.128314090354642     49.903476938663417     48.757768516279057
H      50.196078370919572     51.142370753692461     51.866859846067243
H      49.546126645681696     50.482745561883220     50.909276697143071
H      50.472002846671039     49.798174035008707     50.374174225296493
H      48.073890223314685     50.090949468033074     49.820997314170455
H      48.684581124919596     49.645101496486021     50.637486456230505
H      49.828722678977201     47.915574621528293     50.150431854865467
H      48.703046960896856     49.659065106369376     51.357265274891994
H      49.103832888383685     48.324533222979191     50.661035002635593
H      51.427757435120824     51.300674846190468     49.661320297594415
H      49.667970505365815     51.798181482811955     48.350102336008213
H      47.877278296720519     50.231010290510952     49.163935351902730
H      49.590514377553845     52.164326685965619     47.693741020025783
