38
lj38_benchmark
H      50.000000000000000     50.000000000000000     50.000000000000000
H      50.581870538306795     50.122179537117837     50.280514935015965
H      50.182722301076986     50.536682149084108     50.479440851329073
H      49.740814893413422     50.965829751416088     50.061312176666569
H      51.125670044722128     50.569345383105613     49.993642717329614
H      51.371534304684879     50.058796987992125     49.680597741788930
H      49.296243511712589     51.482036545275143     49.783383173574236
H      50.051396095432381     51.521992906880833     49.741781144378066
H      49.796284273051427     52.162005359205907     49.706742115744937
H      51.683842700480902     50.687186008161547     49.838429713188646
H      52.224396994286472     51.089595701233186     50.116428787066575
H      50.905606206869450     50.315893632711294     50.783134314036502
H      50.084854052343523     51.502883456097791     49.239826873406230
H      48.849272367893576     50.847891940591595     49.823561456403013
H      52.350512405057408     50.503421320451110     49.475141723606441
H      51.564285442377077     50.381939662831527     51.008372535168533
H      51.953590586895530     50.276656927940920     49.766046961604943
H      50.063039179496236     52.721133981845753     49.650821946263157
H      51.418189141662907     49.800712314853193     51.545086651996300
H      49.455995719996046     52.881686038776664     49.903526797060039
H      49.186370988316966     53.120584439584526     49.406953363078408
H      51.874824164538879     51.759385440266165     50.269870592844867
H      51.734744593782729     49.649700675123078     50.846512411670759
H      50.938443273453146     49.369081994391891     51.467022396772691
H      51.513278729126192     49.149090981956697     50.488315731766804
H      52.216805256355237     49.144407163437862     50.374536120784519
H      52.861046516374451     50.725658192611334     49.477517250895104
H      51.406472678982723     50.381742114496099     52.029334768233639
H      51.656945119899873     50.362644385407258     50.322287520177056
H      48.539178480214446     51.050514714281803     50.320431809953845
H      51.525908611366347     49.672680787720275     49.957179886152375
H      50.423892391985966     52.381761179051004     49.172392198867165
H      49.708971860083743     49.795977615177613     50.552030177829337
H      52.344996562442184     51.946940581311054     50.208900218589875
H      50.932575622219773     52.359105637168497     49.070599700482759
H      51.661945716853644     51.025062135772785     51.825491489965593
H      50.373838654779597     52.033655560662254     48.746942987632785
H      52.897832355937027     51.388052570175930     49.342320263932443
