38
lj38_benchmark
H      50.000000000000000     50.000000000000000     50.000000000000000
H      49.482786853799404     49.784362202174172     49.764906976691293
H      50.046448475535691     50.174885334357782     50.519238010037718
H      50.406997316397423     49.720151039204630     50.291983625711858
H      50.450222740534727     50.744637094601281     50.751534321215225
H      50.901309521934834     50.559064347619930     51.315100798638596
H      50.423652396079632     49.445024496987919     49.663545513097091
H      50.194875898107320     50.290607821631134     51.225208101396689
H      50.243822647326908     50.042673050931036     51.779455657550869
H      50.332114862670714     48.973729791530957     49.130801643437913
H      49.848929563331623     50.185359735413414     49.457181366707225
H      50.660524229568530     51.268458302224182     51.060519537190139
H      49.442420181567527     50.338340452651174     50.853970618353102
H      50.609014687657826     49.353673119031441     51.641964043076015
H      50.086079087953465     48.495745378626061     48.739466928573322
H      48.868404281953268     50.327921520998920     50.401301361350590
H      50.806586180901910     49.935602790060457     51.732802404690773
H      50.732874271339668     51.456941939577725     51.527393358509983
H      49.965510458941488     48.958660984215165     49.972740598942202
H      50.680425012150280     49.282933402538092     50.290651202124856
H      50.090055438371358     50.894635751314539     51.623969480449936
H      50.885265384704972     50.311455816137268     50.503585573875384
H      50.896754786911174     50.442806421286036     51.957472549284510
H      50.919665842796512     50.482860259598141     52.462120797046126
H      50.838868039481397     50.273276897149145     53.030433809231951
H      51.482672668196734     50.494215828524347     50.630767797404523
H      51.535692707648323     50.978157364879735     51.335084648734139
H      50.227140525636166     51.929132530520846     51.538247385798321
H      51.875277513458521     50.703310496801798     51.004228805285933
H      50.725917252921981     52.061355497939694     51.980608088005809
H      50.458031598209480     50.251608811220528     50.051629425593937
H      51.483408979844981     50.306098966664507     52.168114333217815
H      49.899964366816121     52.009269312591996     52.067967924976948
H      51.280833730715720     51.156568447780785     52.282904643905276
H      51.753122791073295     50.225665792326787     51.740059699605347
H      50.062259063392254     49.172461854499744     48.421728094080386
H      50.477946916758789     50.314704246421137     49.019537927879632
H      50.857168272633608     51.961578647535354     51.163609905978184
