38
lj38_benchmark
H      50.000000000000000     50.000000000000000     50.000000000000000
H      50.672418184942266     50.257217869912438     50.184748647024065
H      50.318216812258505     49.749549992155174     49.310621476990214
H      50.418713741243778     49.831745183393487     50.799318219705228
H      50.317905924750043     50.725655398313933     50.658959258920518
H      49.722866557135632     50.092831504931922     49.406731153077153
H      50.777216365648769     49.501128089000034     51.274224288829636
H      50.468450879448909     50.967892881430316     49.903245451078689
H      50.620031739687533     51.575625832709704     50.219870928427653
H      50.981299907408946     49.072401409229002     51.527521654275859
H      51.075458554952597     51.829594066505443     50.567774254700979
H      50.991778779043202     50.920562884660754     49.353827544129615
H      50.837934156079100     49.688613083444061     50.018752421008088
H      51.393051193335424     50.197977859332880     50.022998970645943
H      50.291923562223140     50.222549511107069     49.535884231023829
H      51.419520093316329     49.874561520120146     51.057355162133497
H      50.628623995707336     51.543567212050974     49.524595987361948
H      49.586641528354143     49.576385161089767     49.294251830400363
H      49.808670522722544     50.671004121287865     50.690406118200265
H      49.606779139116085     50.808527254939037     49.480875289510927
H      50.125087603619235     49.355282785852992     48.975250627766080
H      49.655600697766836     49.599455805108519     50.264978811837643
H      50.898503938926162     50.169398479132447     49.378435151286389
H      50.727846408900206     48.973425355784912     50.965688876818206
H      50.954524540562701     50.707206522416804     50.754774514156871
H      49.880149987624861     51.159183657373674     51.033964629737774
H      51.539157475448697     48.590974932535495     51.660930489340934
H      50.957701220625395     50.692784989116291     48.854208940553846
H      50.600261728435107     48.392206605230534     51.026113556774554
H      50.135339744795161     51.200962002393211     49.416394932048227
H      51.481921147793564     48.484843312026449     51.033595200241727
H      51.475270723629549     50.877195880096643     49.476331605523413
H      50.222092790757728     50.371544987234273     48.950521239392373
H      51.478516093750883     51.385320753069600     50.024660930424936
H      51.205133018590310     50.725185692700720     50.175821370205227
H      50.213499857091811     49.789781367069416     51.661140035979670
H      50.276004549341906     50.180199202192306     52.130984503512003
H      49.960257775608689     51.518782216646770     51.484928154448355
