38
lj38_benchmark
H      50.000000000000000     50.000000000000000     50.000000000000000
H      50.750498959859044     49.940699072430434     49.909335814897545
H      49.792569361488951     49.591333817482443     50.344518842795594
H      50.823462827670866     50.277346723751243     50.329415894121503
H      50.937229582435215     50.417294301776906     49.433332462878823
H      51.508115264322377     49.984358536938913     49.118230219131227
H      51.452441881126049     50.701031530038655     49.717234955213677
H      51.597371308722572     50.289786748483031     48.385406392080384
H      50.936118214461054     50.199413702186455     48.102667021157274
H      50.399921373461645     50.805547985002349     49.170331690624785
H      50.082204639929238     51.498873130102993     49.084401349834877
H      51.140549719408597     50.473858933857095     48.973247090299260
H      51.350791373020407     50.527883061540919     50.524871788107014
H      49.672247911295052     51.151347839468947     49.051238911442532
H      49.469826256371206     50.012570191740792     50.555592241293319
H      51.659320832228651     50.246762184277671     50.207518505612335
H      51.474234391382858     49.659242717446674     47.948793320161549
H      49.385795916595960     50.372682001580742     49.710507394105903
H      52.175895294596529     49.885130604594998     50.672263677411962
H      52.134105408356945     49.917510358397713     49.060080393452964
H      49.931271117058230     50.700231092904538     49.970288414176011
H      49.778314889833339     49.082757585310027     50.690578561572828
H      49.895973619320941     48.574843750495695     50.365180901599935
H      51.430513228597306     49.271349757402959     47.368193072364527
H      51.641492614661608     50.985895988020047     48.777085920975196
H      51.800883514746417     49.206229677863057     50.857649061092118
H      51.889836615829687     50.420576722033246     49.111743908853249
H      51.785472470368482     48.901265068282292     46.810723154489153
H      51.940019623790505     50.184777130098325     47.907479377316271
H      51.565315965432006     49.997268604281544     50.882596462577091
H      51.061523908093108     51.017021671722745     50.409131652202397
H      49.595944451231468     49.202371441654662     51.139234046123271
H      52.452700652210503     49.499703510131290     50.520514971226270
H      52.413528050653085     50.380091554734157     50.087108573063681
H      50.074858443678274     49.291562437450366     51.605492718319006
H      51.160141184828177     51.553917647490010     49.979171132014748
H      53.097853987865754     49.760097306232012     50.185846674200626
H      49.043069574382002     49.826141287235387     49.353753345872434
