38
lj38_benchmark
H      50.000000000000000     50.000000000000000     50.000000000000000
H      49.454572876326317     50.252915559311141     49.658542095651342
H      50.308028493520460     50.680018320303724     49.808990211194214
H      50.783726977111769     49.908433171805875     50.080087207594715
H      49.606689720496803     50.561751440687502     50.218783983570226
H      50.559019376247200     51.385039097921393     49.511437886457351
H      50.372155825605802     51.823752602731602     49.991867157746988
H      49.552238211999011     50.347274881783250     50.667960405075114
H      50.416344902239175     49.449750724454510     50.178162271966585
H      50.810771730809599     51.749345443101440     49.080410482445153
H      50.656587139959832     51.270554092687455     49.000219936143246
H      50.267433161447798     48.864044868187051     50.427240529689506
H      50.794462235375882     52.516080420919351     49.267676354232876
H      49.610305081134641     50.099783358579820     49.210464635219957
H      50.164255957522144     50.773534120674448     50.677155954275896
H      51.300738387608845     51.011235820761968     49.199935677956113
H      49.614637480322855     51.836459544894673     50.158881153269917
H      50.303778969154273     52.693310353608645     49.318969437754866
H      48.810145909419518     50.334019223575062     50.750063832341013
H      50.433586052092721     51.675270615268118     50.671610798588169
H      51.027930102062427     52.512972710803716     48.737925733089874
H      49.276668078731589     50.903536687962365     51.157211473864201
H      49.873420554753153     50.549597561727843     49.362149493556188
H      51.390187029013873     50.158417611771476     50.468644217512519
H      50.451040825299721     50.360313622264378     51.207991712862309
H      50.094963789814855     49.259343266806169     50.695930138192089
H      49.415540075693116     50.857644336153683     51.932121646142029
H      51.206367262459217     50.604915424065247     49.502961376143247
H      48.974974319711407     50.716739909290006     51.661376806621256
H      50.241257986885294     51.307273477071675     50.338047209195771
H      49.111437269771855     50.329721499554005     50.182104503685380
H      49.332523315308798     51.267315392782727     49.696152598122126
H      50.897737886487469     52.754756688079325     48.075420478978067
H      49.299424017656136     50.065103833926571     48.775316682493667
H      48.708546907321860     51.446607685918821     49.739469645877968
H      51.134084922323808     51.657701070697819     50.610842109257803
H      50.676081614479855     49.179337216153591     49.575319934913125
H      49.400878730014973     52.489569198232417     49.940686838836719
