38
lj38_benchmark
H      50.000000000000000     50.000000000000000     50.000000000000000
H      50.476929613989391     50.165609629519665     49.623177249508046
H      49.988044611030872     49.641426162724024     49.557534205605769
H      49.937903381217104     50.626965027514380     49.557435537202053
H      49.446481429387994     49.664631173393886     50.271558852119306
H      48.854784995866659     49.290758248059525     50.454853482523134
H      51.211330353215644     49.986363453055318     49.445768205871744
H      49.776424715281188     51.043669081787534     50.129979528281154
H      50.869692607531242     50.711395779033637     49.407046624084316
H      50.285661835671078     51.128266284250373     50.532282996696111
H      50.740724632612348     49.714735652272616     49.205741899201342
H      49.153820519290583     50.646520362150596     50.135900658785047
H      49.604671613501239     51.443615807001954     50.802872204723400
H      51.129729241472027     49.769314327172907     50.040865939435207
H      50.341253102626133     49.503769947655215     49.881583194069975
H      49.531349761229563     49.598967804859470     50.825836832511058
H      49.824149772573378     49.610393517215037     49.046630395499839
H      49.634971506436976     48.832693817074784     49.000424084009090
H      50.633926615687862     50.613078489913491     49.977793402066595
H      49.525378776371525     52.099233642033688     50.883769956002951
H      49.764708326984312     50.113703802350379     49.079860733744304
H      50.019532251471823     50.127603343596959     50.843383056267754
H      48.977183372814899     48.773674959534873     50.921538847379246
H      49.919268698861124     50.895756414877539     51.200748422343075
H      49.324432000827521     49.271840157359016     49.174223254016177
H      50.696910110052229     49.722551250108786     50.679796493862227
H      51.542959264327401     49.120814419055904     50.145532603681190
H      49.282925429875391     48.191888686469945     50.657943424963911
H      49.251588809237049     48.219698188415791     49.165149019284179
H      51.177418463276972     50.504079983664319     49.905814647284608
H      49.909848775406893     51.468728281279155     50.400143548174512
H      49.477559720862665     50.404228674497062     49.478688951056689
H      50.931266921461955     50.169270683196679     50.869339640724206
H      48.991849547170524     48.301214432318552     51.149579143080473
H      49.383880238201115     52.547344170008813     51.075190058176744
H      51.479836120902611     48.574555229055974     49.730091735834876
H      50.225751632126268     49.087888474742272     50.243235199251096
H      49.608419075466180     49.503155451098564     48.343679740913970
