38
lj38_benchmark
H      50.000000000000000     50.000000000000000     50.000000000000000
H      50.529417369604438     50.206601430567474     50.127573639079237
H      51.162985622017516     50.229244808599802     50.047334790407504
H      51.347394330925603     50.281256764518943     50.749796893356155
H      50.771614916983822     50.850146453545314     50.403876253143558
H      51.475217738558079     49.725021660958156     50.043732275553381
H      50.470460602280511     51.090777006544521     50.958362918768017
H      52.155085816680163     49.683607485502762     50.422136959764600
H      50.035037293613925     50.525967253075876     49.639060945003401
H      52.038122169085121     50.515503892625247     50.680583507901915
H      50.614831933419616     49.543037029990430     50.484307959281402
H      51.046330574965062     50.833446431762738     51.191203621228937
H      49.991237887311073     50.207630997463042     49.057025379686671
H      51.076177399078702     51.360658714173411     51.102767091274437
H      50.002672377335834     50.587800721018262     51.294053325570793
H      50.169266850705448     49.337409334355542     51.015926233913959
H      52.318873755591440     49.201004454561115     49.970800196529339
H      52.663201820444399     49.634674996219807     50.713730278014779
H      50.251109598045176     50.176157031060775     51.047579416731132
H      51.374581256194205     50.751050331478190     50.111442563309772
H      50.669657340786905     49.879951961549672     49.226024625212091
H      50.470409299607105     49.283829660891818     48.881231724761598
H      50.036664046945738     49.635727542052692     50.494976071821611
H      49.351954144172979     50.616640006682857     51.319900294237094
H      48.767535729513000     50.583306896003400     51.726406579648945
H      50.148924760905956     49.225994742520655     48.234603599901533
H      49.766937301512947     51.384111149783614     50.773022194664776
H      51.351334596774961     49.572776217570222     50.849761080890360
H      53.297651065456392     49.320779212068743     50.494665590227392
H      50.776726741600612     48.928059571510289     50.676821189488891
H      48.654086687839794     50.630828820900668     51.061923427537927
H      52.902647156932098     50.119209250583125     50.811771908606822
H      49.198770820367912     50.647551804774544     50.762165230011206
H      51.856041993882435     50.046746169169303     50.063668141192466
H      48.356787496561111     50.118119575346682     51.881221349659427
H      48.900143062409732     49.711726180344570     51.634101001525245
H      51.716210926441654     49.160874574404495     49.668794880081968
H      48.002965695226109     50.691572871740739     50.811597486147434
