38
lj38_benchmark
H      50.000000000000000     50.000000000000000     50.000000000000000
H      50.258871626754818     50.268283512248033     49.622408086955723
H      50.478428490261521     50.165608502059456     50.408193910300795
H      50.803328123066692     49.609808643372226     50.152930932755481
H      51.025476135499247     50.472762809708918     50.487841221089568
H      51.445572557695378     49.389534361505575     50.207167281879123
H      51.380384488770780     50.917984428752206     50.296652928943963
H      49.558015201144791     50.072474598826169     50.412896376454768
H      51.046531047588246     51.018603327439685     49.740411626330214
H      49.861487616228032     49.476731111662041     50.636112611398154
H      50.174874217497788     50.596476195382692     50.446516025717138
H      50.013169614819212     49.647974248535739     49.552769879056754
H      50.379507297446636     50.934141501183042     49.807194406357262
H      51.137804264252452     50.896643409947423     49.155634792898873
H      49.827379356530919     51.088356974785775     49.376665884501556
H      50.659811506365962     49.658254786862543     49.404443895890687
H      50.894430321151944     48.986253036098475     49.557869277324322
H      49.691786108275267     50.918672904449693     48.918991343096693
H      50.177373884102686     48.934797395538489     49.393141370831799
H      51.238687323163248     51.659998192979415     48.960648380262839
H      51.477782687139644     50.387083288134221     50.853203081846807
H      49.835601794466960     50.174373866185768     50.830363787165268
H      51.589255520306843     51.487512127943887     50.326553857175711
H      49.348742936421239     50.748558819358337     51.057160115605946
H      49.717627025416824     50.799482770390789     51.498774498370288
H      51.104503187851591     50.760747534838664     48.562427402828675
H      50.583022704540923     50.524763518313904     48.075051083662494
H      50.785267033750294     50.988814382092222     50.854292572213460
H      50.345924058706856     48.929132274743331     50.879078490738564
H      51.845485634272769     51.562803439766071     49.229976130329575
H      51.192837066592212     52.329026812010490     48.976925050563089
H      50.955837429142917     51.534020322809170     48.235673792338410
H      49.375320397864591     50.473900808521265     49.017582101060128
H      49.622659914801766     51.325353454627297     48.553810028771323
H      51.731788453692111     50.578266046703156     49.476648365687183
H      50.912203970835542     51.587367003737818     47.574576382450765
H      50.937630980038911     51.231090747773720     51.478249868095837
H      51.313588226126640     51.981036978447513     47.229733239569889
