38
lj38_benchmark
H      50.000000000000000     50.000000000000000     50.000000000000000
H      50.086841790731384     50.398160153206973     50.361554251216134
H      50.520920308429325     50.463831164177023     49.623146848644708
H      50.871702825167894     50.865940187363051     50.149457324324771
H      51.313497472992744     50.693343788578908     50.353534037873267
H      51.396207636413834     50.548895348067603     49.692433395441860
H      51.093965324008913     51.022560874631083     49.314212804319943
H      51.041564866859503     50.345077689539281     50.120927551942167
H      50.648383092078738     50.724289136183415     50.748681997902040
H      50.433428206843743     50.441192899044388     51.291385302731626
H      51.405180986566556     51.091144238602432     50.966641195449398
H      49.720916424383446     50.775807934158287     49.822958921290528
H      50.791368562466694     50.299019994751781     51.664540501317134
H      49.534438751573788     50.946571182877769     50.262128365278834
H      51.531618604319277     50.190576165138303     51.890745438225295
H      49.160836713908679     50.976464575381023     49.872828913124899
H      50.246705189847603     51.127924944393968     50.467120093625589
H      51.855103598248121     50.260594648443821     50.196087278800114
H      49.720454761439633     51.123991479902024     51.034567304705938
H      48.838778735610958     51.285026608089794     50.356555791170948
H      51.701794437303512     50.377560945077803     51.371586098821652
H      49.625976965532928     49.564654193900047     49.435940014565901
H      50.000510700881499     49.879742640289166     51.433132454912830
H      51.229854937574238     49.718810067376268     49.802388675993420
H      52.090119641169089     49.834514749084640     49.988456375302135
H      50.568125228245520     50.028249083591263     49.183807480009527
H      52.250425554251144     50.004985924692257     51.567316123860216
H      49.893237015870895     49.465480246976711     50.221749759818181
H      51.106597561966304     50.841998811138808     48.732461243771468
H      50.474115838047069     49.696491471113262     49.595675572302454
H      52.660482533750347     50.338731679935044     51.339717532661020
H      48.875336825738117     50.670776038102026     49.253759948001644
H      50.624043416153505     50.743397791028755     51.832483546769488
H      50.933918014724938     49.678244586811886     51.735204659537636
H      51.975815466211358     51.113703108902683     50.184782879457849
H      52.845517506565400     50.935859789709248     51.268391100620818
H      50.957962063162213     51.130516740507886     52.013333372572959
H      51.275638199100754     51.561993939373131     52.320515781452990
