38
lj38_benchmark
H      50.000000000000000     50.000000000000000     50.000000000000000
H      50.353619141187259     50.275090316041819     49.351567014312153
H      49.989454047944129     49.797140110472917     50.569086335379879
H      50.510228431474090     49.831117854367641     51.109881242234991
H      50.827846774041276     49.612651533836804     50.639693817537058
H      49.820487827680580     50.012347718588174     49.301540921727607
H      50.435775511553139     50.267761276566269     51.725211913873039
H      50.064838336111187     50.751840105010672     50.099433345002609
H      50.981637685733013     50.438353727198518     52.163556352184706
H      49.488085353508929     50.126908189603427     48.604594905812981
H      49.728309176182421     50.084827906691004     51.944908979851000
H      49.383157473021207     49.987663308149202     51.405287241306752
H      51.212469421952783     50.016659105772753     51.012869608788066
H      49.926062852599784     49.748232445781419     51.474765687560577
H      48.803590006309257     50.197600738599249     48.552751455486828
H      50.302502008355383     51.482697133797281     50.002536019074995
H      50.852670600506528     50.305233885398657     48.835290949481312
H      50.385190459782400     50.509889256740124     48.720927751936351
H      50.356531375395072     50.955058492274119     49.229585923513945
H      49.261033451891727     49.435565005254716     48.326800034827976
H      48.038221799772785     50.292984043520200     48.603146239966328
H      50.550726913705283     50.703720244420893     52.336100327290659
H      47.490872663502387     49.973735157513197     48.235077051818742
H      49.481277807318790     50.751440700851575     52.239069242532395
H      51.825269277957261     50.234501067323635     51.049375432364187
H      51.842748793727722     50.909331111368402     50.794953019596527
H      51.316401176764870     50.831265980831056     49.155844177693119
H      49.703653182587615     51.178546303479941     50.020127989187621
H      48.715038129241009     49.909098045035520     51.406235334846158
H      48.718253260362403     50.575105214372329     47.864272450444524
H      50.284853691409054     50.456582731008361     50.704079443987965
H      51.107134697870102     50.234533919386635     48.108160689385649
H      48.326679078613061     49.777834306177802     48.289704108597341
H      49.870577924211467     51.079510458241842     48.949581927374084
H      51.965449152508135     50.538941361863799     49.284589820841560
H      51.886156516699756     50.521408374370175     50.192943226964658
H      49.259792809312167     51.464606499545575     52.160449002641656
H      50.745842743457246     50.399641277459779     50.050019074631884
