38
lj38_benchmark
H      50.000000000000000     50.000000000000000     50.000000000000000
H      49.464534067209733     49.596384950963156     50.400379125453540
H      50.012169053979640     49.313660792992422     50.298628619634464
H      49.799210244985062     50.264790486442173     50.476060876566386
H      50.307934203090916     50.255679412364742     49.377339639473128
H      49.922350855931427     49.519588203801320     49.567270696096671
H      50.385108139207873     48.863707620447933     50.155237663084343
H      50.454629254189662     50.528145210004290     50.583640331059350
H      49.897426618526033     50.075867025711354     48.927516760538829
H      49.022942617942604     49.921438588933185     50.754499807906235
H      50.240425115556476     49.226998102875520     49.256276262367749
H      50.826458030976468     48.961826999427103     50.802886143673383
H      50.165773600791859     49.606913281539235     48.333008359749044
H      49.544320400910905     49.442191431020746     48.466095371401671
H      50.573271978152832     48.191150624393515     49.777743905254773
H      49.765237884652876     50.404109292487675     48.230149808005592
H      50.281409058975477     47.608851900901691     50.195673718233877
H      48.833308904471849     50.298627386007830     51.097432680316288
H      50.200723222972833     49.050851376763973     48.579514373454771
H      48.570860254231889     50.199109113735986     50.565243940521100
H      48.195203821417806     50.014245328875177     50.080872877550838
H      48.803713908822196     50.457441137013220     51.884235842340040
H      50.698705341653387     49.521310854558841     51.109605872085403
H      50.041602139523803     50.192531644998063     47.511444256980923
H      49.833865433743021     48.479355402108943     48.602565338588121
H      51.250466935939798     49.480638214207232     51.063778629617389
H      47.794947878213442     50.354065155055018     49.564447523127029
H      49.985505386531919     48.554866155244312     49.607963647968710
H      50.561639805254615     47.418620832309649     49.641994405540736
H      49.024857594733419     50.695957900476138     52.340351110029616
H      49.277374034235919     49.964146718538068     51.848504015697955
H      49.832641696519858     50.316486825375939     51.735260446015189
H      51.795843160400324     49.260673760088586     50.591048093147364
H      50.008139444518669     50.519663623970871     52.204710625481020
H      50.033972963472202     47.999662140691605     49.369275633461655
H      50.169264496382304     47.980455593095883     48.552392391428974
H      51.764802350717439     48.988642727955941     49.934489620337864
H      50.430592033316394     50.080818632058381     50.868870424673581
