38
lj38_benchmark
H      50.000000000000000     50.000000000000000     50.000000000000000
H      50.482463146471069     50.380185229537410     50.495866671429937
H      49.848460830594391     50.611653963948328     50.727861579850853
H      49.326550384243035     50.445453761675012     50.749693872982945
H      49.608695040854947     51.058387663130276     51.189468308435089
H      49.762926959525664     51.115529848649096     50.209363250810739
H      49.327185786607409     50.981569407480336     50.009646453144093
H      50.132157475651105     49.446903416714569     50.556375396794039
H      49.118440484091970     49.927252588618281     50.684311075394092
H      50.294447004003679     50.525053760199363     49.824182869108142
H      49.635323817472162     49.391626638935158     51.136807966159758
H      50.219667814434800     49.957681033242537     50.743542863720684
H      50.727152529475468     51.048846642688119     49.704604265404498
H      51.332709745714965     50.812352321569406     49.350201794141142
H      51.075405386128274     50.071803666140063     50.118764765677625
H      48.874199657600393     49.741332276439451     50.274123119876819
H      50.283875981717003     49.317243766938617     51.517472088557263
H      50.146057814122152     50.781850329527920     51.379167994639445
H      49.097172399888407     49.077830168847100     50.517047108863913
H      50.296072819335173     51.351489070254061     49.358201593297828
H      49.493121122743908     49.571639505066948     50.223612265619501
H      51.842944739015202     50.489424310663239     49.346152596119275
H      50.014112986762193     50.013280381599181     51.736873510445911
H      51.404063876960983     51.166161917447269     48.722233012941032
H      49.811771543265593     50.365297462947353     51.238816909675052
H      51.557458030781206     51.252105841105760     47.953359133763115
H      49.988174483359586     50.263557148194664     52.214290322148862
H      50.891270840177796     50.924671356909045     47.983849803468942
H      50.053692064036561     51.356528678267964     51.100231712796592
H      50.093429338915264     51.898487921702625     49.733770236493307
H      52.344283619787412     50.245731743254318     49.371904921916745
H      51.416379910081531     50.606950871843551     47.552849739566255
H      51.745605067979795     50.769254330632897     49.963463198041516
H      51.405567632212801     51.334382373489838     47.455678870944340
H      51.997332349158654     51.682019718439726     48.254160780959111
H      51.994277257369177     50.297687520759219     48.829917393437668
H      49.467589698303335     49.915915883277378     51.936132193404113
H      51.312424719297361     51.858301893795989     47.174235439623331
