38
lj38_benchmark
H      50.000000000000000     50.000000000000000     50.000000000000000
H      49.893574476736021     49.237744113120286     50.118505901132600
H      50.109744257282479     49.033795398135233     49.495485328158324
H      50.590416384042719     49.598315527041265     49.512330060015465
H      49.872808574773295     48.773744836242571     50.394477416531934
H      49.476952081553065     50.415953905649872     49.890075809036169
H      48.874398867248921     50.018668686331118     50.090962849510412
H      49.419717901026097     48.866773848399717     49.674086976434957
H      48.944733879233802     50.618061738765910     50.577944581225452
H      49.193953241507707     48.362018277651252     49.198209643726912
H      49.136640539971062     50.707698795163246     51.123882417477773
H      50.819137209764051     49.410330012015152     49.044340094947664
H      49.035693082380696     51.218010040699063     50.739344501748384
H      49.420128562606415     48.845645589781661     50.978169440304228
H      49.363601017266760     47.999350819638416     48.759266185980366
H      48.756210905477857     48.551373412011138     51.010198830707147
H      49.445116953409538     49.153226956247927     49.000388962391497
H      48.517708580102259     49.523460017193806     50.107881461421357
H      49.756519272821777     48.614325699153561     51.641810469568711
H      48.293501150528819     48.180078668499412     50.606136149335214
H      48.412342071346878     49.288282998632226     50.561364538644916
H      48.215551327678696     48.718274782003562     51.228367469171154
H      48.323377315329189     51.172507448761174     50.837640324459649
H      49.470302717844170     47.784146231784931     49.432734823137501
H      50.514713532175413     48.929253084121271     50.811072187098247
H      49.542176966866357     49.207560536109185     51.311768749257354
H      47.783518888866197     51.177460434586692     50.356660194379202
H      49.410339426375053     51.501270988870985     50.268174508967149
H      50.618177728765033     50.310033812844935     50.006079691009887
H      49.528311272493724     51.085575127879885     51.509599604920538
H      49.159887229835931     48.520466074230391     51.596176412607058
H      48.850619493494520     48.296168989493445     52.023120135341898
H      50.820199938428090     48.708751030979847     49.112874734849797
H      51.394676646857967     48.829219859472779     49.319818270776260
H      51.284912443115871     49.468439823763603     49.417395317342887
H      50.301145764234676     48.919504508744971     51.874815785893723
H      48.323339481479231     50.990642827511465     51.589163497980039
H      48.253916693490169     51.680407233022024     50.241909541713156
