38
lj38_benchmark
H      50.000000000000000     50.000000000000000     50.000000000000000
H      50.276511160727900     49.664595657987270     50.602272790265623
H      50.526259671995490     49.147217286530392     50.129787372973276
H      49.941385043221821     50.296753129397381     49.408500126041112
H      50.762942897046834     49.602070101925484     51.011408642997168
H      50.320718354907854     49.759891696793687     51.182344689127149
H      50.312282324575527     50.792785215322354     49.438200034585627
H      49.266158153986247     50.673407007433390     49.312794907961106
H      50.280057110022028     49.385608421827321     51.811571298588390
H      50.610972811923382     48.969625832585187     50.887187736420657
H      49.535688350192025     49.645209395259883     50.898813066238525
H      49.766716521386407     50.129642086768875     51.132244520567049
H      50.802028917016457     50.236069063511835     50.804107611896129
H      49.518558765592282     49.237439137848973     51.267819338384946
H      49.756932964226372     49.102875775049370     50.726540578653477
H      50.705942967786676     48.871658765237228     52.186138030453918
H      51.401934749074272     50.610956530414839     51.137597527660446
H      50.213428724808800     50.241351591666820     48.688081057066753
H      49.011771134806530     50.595306781929118     48.779255355352326
H      50.824102148518385     48.494689712591423     52.592398454537737
H      50.169968172200996     48.733438955912675     52.331355927125678
H      51.518048546997193     49.992671401433562     51.528748773935476
H      49.577304968846569     51.206360377671061     48.968348868122860
H      49.998424471893181     49.992810314387199     52.119740974522550
H      49.821097089143393     48.867378565335557     50.101920355919994
H      51.083252591891778     49.555092807500309     50.609139494362211
H      49.186324381593295     48.901803458260389     49.868157684380613
H      50.265562182724018     50.815251428825896     50.947695257501337
H      49.590040852880065     48.841215200110206     52.216843559984383
H      50.084522625098664     51.538483315393087     48.465275000572376
H      50.726580011917981     50.294364729052802     52.048318261273806
H      48.559385948623913     50.689068726350264     49.548057970104367
H      48.769295389516792     50.348128415974472     49.191413252260723
H      49.739050609141785     48.130857609126927     49.937002884285370
H      48.375606756517968     50.460472248109951     48.570788993879574
H      49.508278702483615     48.083670654204596     49.457270612204518
H      50.903900712335044     49.024211348048198     51.539167375625688
H      49.830413727208217     51.785045245345536     49.348573407557119
