38
lj38_benchmark
H      50.000000000000000     50.000000000000000     50.000000000000000
H      49.496270403723358     50.599851562737932     50.146096203936025
H      49.762869091427596     50.303481667424059     49.594661553856270
H      50.381060621535809     49.577061209814993     50.112387810023556
H      49.547487658240961     50.878755364437097     49.318423949842490
H      49.443633877956074     50.506319174844762     48.698376502165864
H      51.141095862604011     49.547226742524067     50.018853901543260
H      51.507199113726223     48.964355888863707     50.295497139669251
H      49.911480834262001     49.076575001333715     50.236519031168861
H      49.758865399222856     49.746085655891584     49.250219714482611
H      49.353623241263286     51.280742191161451     48.943485104005724
H      52.014823675923353     48.555835041718574     49.879476634984172
H      51.333768768091922     49.427981733149892     49.368522798762527
H      49.708643557674904     49.176314577790812     49.345706793761487
H      49.563906974679334     49.486851569038635     48.655867623713384
H      49.006386264861611     49.039473998216302     48.725504187482656
H      48.334929322138777     48.819128912606601     48.750560007465715
H      51.800162677472251     48.907789535838802     49.392580318912728
H      49.360211129472802     49.938519545901897     48.847697652187307
H      51.248499690416899     49.691088937017312     48.671823934783838
H      48.561187519677688     49.291399091792286     49.067856668260404
H      50.851263145372513     50.132495268799516     50.432947687659166
H      50.729878251324358     50.655963445219420     50.317986443136981
H      52.243881034766247     47.986639753115135     50.372695670401889
H      50.620117132763006     50.524330989246110     50.941456205564172
H      50.017739986419372     49.575153367491723     48.124044101835274
H      51.192945843933892     50.176550636079845     49.617030476334421
H      51.480664525816962     50.820659341397025     49.586996795782895
H      49.759241697790209     50.888371376759018     48.565751175236059
H      48.276200737912681     49.704090372898548     48.463643377574925
H      51.501469062219790     51.134959024951570     50.184407917090503
H      49.002087556947103     49.628629561772541     48.132364141252843
H      48.083512475954585     49.840086546424160     48.965540951856845
H      50.154366608037741     48.814057032359649     50.823774479651846
H      50.049865041771184     48.745024327014697     49.857262234596874
H      51.495160080348775     48.534768192283863     50.002195586627572
H      50.289218566867383     50.067026838908532     48.112364806593675
H      50.298144500542719     49.180086459291324     48.937554504373480
