38
lj38_benchmark
H      50.000000000000000     50.000000000000000     50.000000000000000
H      49.925386795837227     50.110774624049945     50.700819452342785
H      49.331630647786497     50.083116376789235     49.990401537725596
H      49.668057363869281     50.533675927654897     49.823310491031535
H      50.609075062272268     50.054870270278720     50.791801370417097
H      49.644673068968402     49.468344436474119     50.929260475714699
H      50.298883371234716     50.065419017307583     51.501650096921885
H      50.797382597047630     50.032377560431215     50.317506459832309
H      49.543584474857560     51.003229596699768     50.357729723040265
H      49.301306401488880     48.755753302571179     51.078691068886179
H      49.518865632685333     48.083234615895663     51.278145211031450
H      50.503394854697760     50.659488406001223     50.004110210931394
H      48.936878640397133     50.855261304170689     50.698842047250082
H      50.483848471857414     51.432354001562466     49.815710048406444
H      49.328867926631538     51.350988247009518     49.929398991974637
H      50.523229509941210     49.406389593999251     50.901995678311522
H      48.886935540676575     51.584654626376363     49.470332623095999
H      49.561239961356641     49.686840466209063     49.686590932728848
H      50.843976291019018     51.516937454385911     49.356911451847346
H      50.059028833459692     48.706819761926596     50.948922081834041
H      50.624100534915371     51.630829651793157     48.648143016963388
H      50.494017919517027     51.138430037059720     48.130577478039790
H      50.067901750700941     50.802867116816834     48.210465943627597
H      50.677258565819329     52.207158879207057     49.888404378618681
H      50.414843090742259     51.189092883421303     47.492908723086927
H      49.226773887182787     51.326752870146763     50.933642154940600
H      50.316180537055487     48.285775519474647     51.340627139876851
H      49.107512964126649     49.219948252167036     49.344116481648385
H      50.561577848345379     50.269068940921912     48.439141191634114
H      51.359014382885384     51.559363867631149     48.699565729832486
H      49.630830331879444     47.509693376584323     51.315718444301801
H      49.753404259460943     50.664622695186594     51.256338159440865
H      48.959956330736695     49.807493689015246     48.828158442315576
H      48.643695190823593     50.459647243080006     48.850165754500303
H      48.571021937510615     50.714919883116224     48.172264891883451
H      51.288433005910889     50.787431362486338     48.811269258639740
H      50.905175772660861     49.061886466323401     51.266929057528735
H      50.315952030438865     52.153041549298599     48.149364137461504
