38
lj38_benchmark
H      50.000000000000000     50.000000000000000     50.000000000000000
H      49.621569700969758     49.482111172923766     49.840708758491211
H      49.985756855397845     49.126131139887633     49.892275317642493
H      49.326981483329753     49.498290539129499     49.162062909734786
H      50.561780842883252     50.347897657377814     50.360207700030927
H      49.972472686019429     50.485747081273914     50.484262297701626
H      49.123411426223932     48.889804549617992     49.610602675906193
H      49.653882732392333     48.607305858031573     49.468111941690744
H      48.771949450778749     48.811893094343219     50.285231356671808
H      50.061868896071807     49.030908511953108     49.370555249373581
H      50.300594806444771     50.170262214014159     50.986386071197636
H      49.382341020053886     50.798325099640145     50.656429469570462
H      50.540875389789377     49.359028871071573     49.935266037719330
H      50.409759904223321     49.038455292972614     48.888046260325005
H      48.834042177852837     48.344312150539928     50.925062947971099
H      49.358837856481770     51.455089650712125     50.975386939338641
H      48.751622751189885     48.792609200830256     49.103865202746867
H      49.788612359087608     49.829025354178093     50.825496431904220
H      50.495749019529349     51.021982352918897     50.407541327021193
H      49.575835664226062     48.235335340013172     50.999772534446386
H      50.023973454061419     49.677919166075490     49.379839901374559
H      48.138796599258363     48.514613117822371     50.136904724017434
H      48.928860451652774     51.260861888319617     50.801362441094724
H      48.860045640315334     49.403792402100017     50.520707249665342
H      50.986753795943045     48.742502338003092     49.715931349008677
H      48.833122994455536     50.914542465655906     51.316208610722988
H      49.669545903995839     49.771344205251609     51.364019026729551
H      51.153251606797028     49.246253553164728     49.840511113846425
H      50.658422971763933     48.113345682509646     49.986817018707015
H      50.235328188916583     47.800303026850720     50.148702077084835
H      49.857196233340041     47.592996676645164     51.131378508838779
H      49.844851529169311     47.210345082941096     49.982793368983799
H      48.774538943520305     49.600395667776731     49.957789373298425
H      48.279598966716797     48.349842140822204     49.428866466558652
H      49.273181889154593     49.060919430500874     50.264443854024798
H      48.257467114192025     51.330448260496425     51.521514547106825
H      49.492894140697821     47.066628821738519     50.424694057450402
H      50.830827730166561     48.729727492420935     50.192285676205515
