38
lj38_benchmark
H      50.000000000000000     50.000000000000000     50.000000000000000
H      49.431640570692345     50.186404215005496     49.859018197602836
H      50.158942737917798     49.662540952142521     49.657224321960165
H      50.443846205625825     49.908481947819965     50.603899862970010
H      50.706808512746690     49.176483149498388     50.504589860808437
H      51.194937418795206     49.454254638675877     50.915213982190721
H      49.224356460421291     50.122668488998748     50.557002667485158
H      50.747059662062078     48.960804751975701     51.039171149449515
H      51.643426242095174     49.836677239004644     50.558206263117732
H      48.748595135503436     50.461085896564654     50.811689659863546
H      49.741554344812442     50.394008890768546     50.212803608330262
H      49.990989709423360     50.020086673055275     49.332385368294865
H      50.358577412682934     50.562314856795666     49.673492633039622
H      51.643205427656781     49.261594907684895     50.676362597409366
H      51.871503845406359     50.464975482830091     50.530298211782018
H      50.799850306374474     50.479711881079631     49.089536771486088
H      49.003033772238489     50.885047781017320     50.732069045028439
H      50.108156979765738     48.852809320468374     51.321717243188246
H      50.615052804689057     49.115095807724018     49.569515281280040
H      51.155127312927441     50.075813296199506     49.511779722485983
H      51.217045112196303     49.144309067456248     49.346048917679447
H      51.147966307684364     49.210089654612055     48.749179988388995
H      50.898008782533708     49.228996201295139     48.174015586713139
H      51.576457714054115     49.554377661669008     49.484874422507012
H      51.236333903621727     51.016215186555442     49.051861959684295
H      51.475177298379855     49.531302808696843     47.994189209985151
H      52.251140470152528     49.271761390387752     49.772765346923038
H      50.456843422511028     49.472403414659389     51.283444079913117
H      49.322543215323883     51.289167392063270     50.146229280965237
H      49.631843387629154     50.917040568500319     51.061766534571170
H      49.128899372427554     51.922818384721054     50.198091836090086
H      49.700959254956445     49.664702943363380     50.712375517697581
H      50.255391473658378     49.415169223245670     49.116557122206842
H      48.483966594385571     50.480442625134245     50.286963369417840
H      50.065492364400612     50.711753029582816     49.208592240674250
H      49.576261404241841     51.056442760958149     49.472806003112289
H      51.638391823762234     50.728644074513277     48.687766270834821
H      50.005701596456177     49.200816464371712     50.770477399246502
