38
lj38_benchmark
H      50.000000000000000     50.000000000000000     50.000000000000000
H      49.707572351759168     49.688595433548933     50.539480095226502
H      49.507476428622567     49.706302343271886     50.040371853597236
H      48.883049728570704     49.715837296588930     49.882350358581334
H      49.203820854261622     49.649197107047172     49.330975722263290
H      49.702755216236433     50.493834897197807     49.536123263403276
H      50.655499625945154     50.112777632214446     50.245826926578189
H      50.513651944769720     50.864554711651117     50.371200848509915
H      49.961051680620329     49.299335397489955     50.724847341545136
H      50.255743111805288     49.087446723508265     50.382750908858320
H      50.858203890366084     51.237533565442611     50.616417387330650
H      50.678546045234057     48.634562710051576     50.733897770597792
H      50.299387036127591     50.585184020964725     49.370602997628936
H      50.627949398896405     49.927805564635477     50.712380794982636
H      49.993940350257631     48.499169226775848     50.515897072176493
H      49.855550330641435     49.524637725914616     49.185438848725866
H      49.800182892263635     48.056569426223163     50.955845457090561
H      48.178745127575439     50.101273874941718     49.876247157647903
H      49.582547460435940     50.779398554103210     49.073472504585943
H      49.410411994388866     49.993203277900840     48.825652649575076
H      49.251678439737830     49.612325168211662     48.290143762210214
H      50.697119899437666     50.772724048227275     51.029352659600804
H      50.458239831694165     47.689513001518137     51.056214311328681
H      48.866411763470921     49.903626693680366     48.735048452599408
H      49.160983467114825     50.432194969372112     48.847043640770138
H      50.290406124880256     51.280349003022486     50.014911512264405
H      49.810675638304161     50.778462503535053     48.397592937835654
H      50.821928828098720     47.513460192269406     50.471705747739279
H      50.085534590110235     47.322366535168527     50.966627922603678
H      49.530096412310236     49.036033146292624     49.776916106460042
H      51.168239274903222     47.896992281761548     50.196834989092189
H      50.159708591677592     46.844532320500626     51.196798338232249
H      50.504029355439833     49.980760415683115     51.432605560389874
H      51.237640358669836     47.454198044690251     51.136001248701504
H      50.912425050393061     50.773266326946548     49.031737941654129
H      49.299562054965662     50.773021240501457     47.818804186552740
H      49.948704597843253     50.952089362553750     50.541879849552295
H      51.234754984626548     50.866466501132344     51.082557348263819
