38
lj38_benchmark
H      50.000000000000000     50.000000000000000     50.000000000000000
H      49.706752732377389     49.832979595044883     50.544049387155582
H      49.743003690058842     49.645266456308562     49.493613017034050
H      50.102443389040353     49.513180505774294     50.932401275284256
H      49.367973748916675     49.691480743489279     51.226795421630428
H      50.233854740067230     48.997766279517990     50.364289209148957
H      50.205601960018704     48.747142488732131     49.641811738742291
H      49.558108716618307     48.990139989546051     51.552498876272821
H      49.270803022896835     50.319607557902252     50.354721143172419
H      50.677943692409130     49.640700061362239     50.148962863748203
H      49.618777941017193     50.043707711084068     51.563082542386532
H      49.384676652038351     48.895690664866834     50.832300936327890
H      49.737516079222580     50.710874527722389     51.368513538785258
H      48.875737660201757     49.200128865066993     51.791057546687796
H      50.323725968345492     50.229926694854136     51.716430411830409
H      49.118942544038397     49.314007682080586     50.252861836739349
H      49.826904205231337     50.907082743770751     52.138991874904285
H      50.235091990188337     48.310471557934477     50.080129272315382
H      50.906443240204339     50.724937263190100     51.664700906300901
H      49.422078046999459     49.552741537761946     52.194576277026741
H      49.014390189764612     48.427111250997726     50.525817466585423
H      49.717267737614812     48.086377216894100     50.516865998165144
H      49.976517021033338     49.289725473684882     51.720550855617390
H      50.155583779611931     48.688355440875583     51.092358093092933
H      50.741031796917767     50.851833888503108     52.404581347464351
H      50.301698351686831     50.394371841535076     52.434246589357492
H      48.864608004128002     49.068918988968221     51.111762645496491
H      48.455007464956566     49.138774869478006     50.680272389318851
H      48.113802149071994     48.623099318399326     51.053026579058496
H      49.284929180900292     50.434274518056377     49.718800288024582
H      50.677602565333906     48.756633353425457     51.442541920327848
H      49.832739251948190     49.622230141512880     48.811084673199126
H      51.244097280008155     48.754882947452614     51.146079067571975
H      49.479737623601345     51.478229909711580     52.316157889862126
H      48.677227476225781     50.297019009103842     50.133246119200109
H      49.717829122976362     48.951267079264426     50.251311358611794
H      50.901046299229691     49.131104093075685     50.809569142307595
H      49.281996594427277     51.319794401792834     51.569357375804735
