38
lj38_benchmark
H      50.000000000000000     50.000000000000000     50.000000000000000
H      49.656959932825359     50.671082387414970     50.248021141278727
H      50.366896003572201     50.368447413398478     49.392350569433752
H      50.574109844954627     49.942026806067879     49.143619262852226
H      49.907231812298583     49.241895937395803     50.147469488339276
H      49.976380693440326     51.000714528971102     50.664354469196240
H      50.263669814966832     50.540898544106092     48.874027854554150
H      49.687198599273955     51.659800375886299     50.898480060321845
H      49.569027307198581     49.825933500479522     50.475679243906782
H      49.488840064860661     51.786701235409296     51.372863410524175
H      49.384124809886082     50.734759983219632     49.619264185616210
H      49.318058744785503     51.444861778128242     49.404791404755301
H      50.171198493008923     50.524385198086080     49.957078175406977
H      48.676604009080712     50.698360270366372     49.553488148297291
H      49.295924387020143     52.152762556798130     49.541109578830110
H      50.368681781271249     49.504774802199115     49.844645203221162
H      49.982505754710424     48.869075868964053     49.727822123914287
H      50.773421384293201     50.598636344368025     50.399196691576094
H      49.894338390059026     48.111028053673074     49.838843617503883
H      49.162941817446850     51.276448525247169     48.687734105118004
H      48.765535371330159     50.423982169474741     50.084797675333398
H      50.347283075978844     47.550586508139986     49.818980801337709
H      50.544048393885788     48.661888223807942     49.821627401548575
H      49.870702487756333     49.734132182404217     50.891737273076977
H      49.418220829969762     51.255213165020770     51.593828526978179
H      50.294583671781695     51.648416214425716     51.291616854861886
H      49.470864241798928     52.510873777318686     51.323698038412530
H      48.200624851057825     50.541464122463353     49.309807334719260
H      50.581885649085109     47.375038545608191     50.459057990497364
H      48.919246414535749     52.561494900899497     49.806245635242078
H      51.435924689122920     51.018486333148445     50.214336810465838
H      49.424514122928159     50.670867101052679     51.190720169478027
H      48.988874135365251     52.492938240749254     50.948827433453552
H      49.400516036422914     48.163181195068404     49.950908383846361
H      49.180338887667702     50.550510903799122     48.462277992882044
H      48.531573064021707     51.151595627296906     48.613324773016870
H      51.112215619170414     50.193740118017089     49.147990170317499
H      50.951536966085285     51.612925647139555     51.119437119036441
