38
lj38_benchmark
H      50.000000000000000     50.000000000000000     50.000000000000000
H      50.035595989750547     49.548212758227820     50.269221551712072
H      50.501979424028598     50.521266981278629     50.170691867063667
H      49.988492324619564     49.163515088963749     49.932626397402878
H      49.403349072151236     49.977653705865379     49.533109117701862
H      49.597772852274197     50.349063411735173     49.166852725370191
H      49.722911389182855     50.267526977342357     50.365370189625622
H      50.155671466372553     50.690669385802181     49.858318527128695
H      50.345140633198724     50.302561269231084     50.629775060326473
H      50.415640180390739     49.066602561100559     49.610969300760381
H      48.925552154143887     50.422806073302752     49.331314028396022
H      50.689128333204266     49.555732619882136     49.478602266128981
H      50.254119211339244     49.838826261987812     51.000397217638422
H      49.508692698786639     49.191365385456500     50.343887936712676
H      49.612862509879662     50.232673776053311     51.247564476920793
H      50.814683112783271     50.786115477375390     50.951738334415964
H      50.652507625969086     50.488174560241838     51.531387172069330
H      48.851254556848971     49.175138424412765     50.789055553223150
H      50.414225501874149     51.227525494226725     50.599036267956762
H      50.222519200827747     49.971847061889783     48.939544010571844
H      49.118931781463594     49.067902516801716     51.495559327263805
H      50.115218161013459     50.433013843808496     51.180760397074870
H      48.938470402331738     48.546158384373868     50.541196044011649
H      50.638390743373222     50.024530314917769     48.254754958249279
H      50.014912475496928     49.371613976058370     48.566791558499858
H      50.619563298538793     49.179202300956462     48.089013672764580
H      48.342465862083372     48.969485033051001     50.497715909879759
H      49.083452933767852     50.152792383295292     50.683991185890086
H      48.467056284015570     48.871040887580456     51.046036331889951
H      48.545271303230216     49.407096058586362     50.000284721626130
H      49.284905040905684     48.368656896530076     50.993727575179520
H      51.147473318863483     49.105236680881397     49.737056516005239
H      50.478906614696911     51.110856366318274     51.767505850262850
H      49.730958285459337     50.735598918364225     51.324677831145273
H      47.601646352474205     48.971966453661508     50.374339520723467
H      51.020280008152497     50.529119583123006     49.882664240338357
H      51.043450971149262     50.704385106739601     48.315216987027945
H      50.224330296610795     49.728069156811124     51.730811661097455
