38
lj38_benchmark
H      50.000000000000000     50.000000000000000     50.000000000000000
H      49.440018618694175     49.827544264531255     50.320995848818356
H      49.150089028535383     49.488200291352165     50.735865616855776
H      48.709352566910972     49.196883567018915     50.507734406352668
H      49.512921510891402     50.191615099545452     49.555402499685364
H      49.253661220827858     49.512830065389132     49.889796121594955
H      48.216034785384252     49.330960947637486     50.203051834616716
H      49.514592656271937     48.914946096640612     50.792863781675990
H      49.199905427017740     48.810461355918306     50.078231941862782
H      49.381473543987660     49.426552940509040     51.215708436575625
H      48.103065144939535     48.988623563326115     50.951159694151791
H      47.690968939300930     48.930685435132467     51.419455555749856
H      50.019499962681209     50.620166789917491     49.175638671145656
H      49.954748667231023     49.061460060680758     51.078953483066336
H      50.614140435964430     49.444429240328226     50.903581306181358
H      50.258476173533154     50.530859659258695     50.339881957688760
H      47.972954564558769     49.781109702576579     50.198033402266837
H      48.362809943408422     48.833169028552817     50.093387524970332
H      48.748245336291163     50.009308952612500     49.984615431226004
H      48.049752913891012     48.590210965109193     51.510538121721524
H      50.525575374889300     49.196549443902335     51.402234837059815
H      48.161685861418547     48.282317523567492     50.941469596545737
H      50.612746807090730     50.279441002953661     49.462221090431086
H      49.701654507177977     50.853779244937186     50.426791578543323
H      50.950827755482678     48.665521414231193     51.769209161920010
H      47.822541137332067     49.292853097065205     51.800931186643176
H      50.290800136967881     51.241875312666913     48.801890030940456
H      50.023643155198918     49.600917872347040     51.446205106014013
H      47.423141628953708     49.823437885639130     50.557848904692761
H      47.456338797156889     49.602419970673360     49.803718904888996
H      47.667793083275363     47.744242671470509     50.844940623642017
H      49.576191303111003     50.718484232760865     49.937336282764456
H      48.947399607011455     48.799174891933426     51.078684539245600
H      47.169161151193741     49.258309882644063     50.680919533628192
H      50.073911457042641     49.913453270180561     50.538951195043772
H      49.277690897226599     51.272710824467573     50.733506260508278
H      51.056939110240776     49.749238602452493     51.205525944277447
H      47.005232600219500     48.634372569584194     51.264017854806561
