38
lj38_benchmark
H      50.000000000000000     50.000000000000000     50.000000000000000
H      50.434071787730709     50.271981709131687     49.385811735974222
H      49.989100398929914     50.329832681316333     49.039470431968944
H      49.373455214182698     50.455605774101286     49.317227392772928
H      48.763221549747762     50.814819712825781     49.105781180964101
H      49.310581479288189     49.923258454687890     49.871412571132787
H      49.754060169845239     49.645957798220373     48.822771658687813
H      50.366835116709680     49.920200558304010     48.401600722033038
H      50.165357924665877     50.875605265768442     48.695659353825882
H      49.410643634212690     49.423063346184271     48.452519115042470
H      49.785790593102021     49.318011794558451     49.973196165577477
H      49.813376386023030     48.826806381232387     50.341882186068247
H      49.107920419926558     49.567891631213982     49.316320768911538
H      51.090544631606761     50.090188893798711     49.027262698505616
H      51.732978546463904     50.320664365471252     49.243837652818407
H      49.666999180505854     50.692933889496437     50.180014844066172
H      48.693508868377705     48.927238528583857     49.516333009893692
H      51.042756313739318     49.485898704540212     48.777941321562558
H      49.865933147327361     51.242649293280408     50.612108792722339
H      50.119115515468813     51.430259761496060     49.070882205771738
H      50.359850611849119     50.621232999250807     47.961115103251217
H      49.753133164323401     50.454760800207751     47.876174457483863
H      50.363308282424597     51.404826230787101     51.220527092803188
H      50.337926741371120     49.261676167891238     50.015156825646258
H      48.971263939624315     50.999084325898458     48.437446541119733
H      50.048587095210962     49.007141857110454     48.702869582773538
H      50.298468530643625     52.144973549431171     49.206359526928750
H      51.777314209503416     50.695992516371078     49.828206011503418
H      50.837781480297672     51.294614932408848     51.622776032304571
H      52.297565698905288     50.651012252327845     50.061924730871958
H      48.663172850489850     49.842532718986782     50.218324470924408
H      48.576361626403219     49.140640564987507     48.924674993906073
H      51.475055363287879     50.938937605663597     49.464475658053651
H      48.003404833205835     48.903028037836144     48.675611046620055
H      50.752460790524431     51.466682831710642     49.105906901559429
H      50.407995257215298     50.601217386219496     50.142407257378267
H      49.358965690876474     49.046821341150213     49.407342451923810
H      49.658279396894116     51.574604943412631     48.459395187754474
