38
lj38_benchmark
H      50.000000000000000     50.000000000000000     50.000000000000000
H      50.471599785393693     50.159353242986754     50.502312428241069
H      50.471819955296752     49.555400319336030     49.574044943615569
H      51.065599523106350     50.391355582605676     50.284728123047451
H      51.609166381891782     50.298838729221075     50.614752457739620
H      49.727943734607791     49.421107384783355     49.366637960765097
H      49.633730431652459     49.965881351566757     48.866686489492011
H      51.690598605605523     49.869578749639111     50.034076801601195
H      50.810849755961030     50.462697074298319     51.153890346962797
H      50.622138078373901     50.698144336169769     51.720650528116913
H      50.897130078957133     50.133237149103429     49.218785870612557
H      50.467490774350040     50.035388136697819     48.969781386081699
H      51.287100140202554     50.341123491329704     51.925592348121903
H      50.752768092447752     50.871473026233318     52.212780438391995
H      49.528227164007959     50.176729684723711     50.344062167520804
H      50.861531694556056     49.780678359164369     51.371342401577024
H      52.258839134647481     50.537922624771042     50.425774806527428
H      51.506847743206436     50.066742491012306     48.776591869978645
H      50.177762796631477     50.574079422374552     51.025491095793456
H      51.229202397737183     50.962594579740831     51.121034843549943
H      50.551018989795288     49.107414588056677     51.283789757470885
H      51.094290351107361     50.568197362203321     48.358665928939153
H      49.908740169229979     50.975799148533582     50.458953593097604
H      48.991268163562367     49.549095415847972     48.876901077526441
H      48.920284260349675     49.649507706561778     48.151522877541311
H      51.476838066578892     50.320079371143670     51.365576089325252
H      50.422953485988344     49.104335993786435     49.144925788607814
H      50.398362434030865     50.345169569643275     52.670764593555347
H      50.631162607103334     49.792467524784989     52.213394229014810
H      49.353515645636428     48.873177216614614     49.779885123611109
H      50.843940634761438     51.094845037883402     48.669574831703201
H      50.515594562364974     50.717765846697766     49.412192049715777
H      51.556943233337854     51.248744468342181     50.784610922080454
H      50.293204539597632     49.433449357671122     50.319878165124734
H      49.926847311934473     50.740799398140823     53.110955733744802
H      49.221619344135043     49.993576920932384     50.775033752037174
H      48.840054536944841     48.777708809633985     50.311806040415242
H      50.313223801109451     51.442879205677002     48.499795503832530
