38
lj38_benchmark
H      50.000000000000000     50.000000000000000     50.000000000000000
H      49.439483710673237     49.901950213795594     50.467349016561720
H      49.923425329580695     49.337755876065422     50.095937004768302
H      50.507387839712166     49.008066160149227     50.099832141115265
H      50.592872532746306     49.657831128074839     49.619861017149752
H      51.263665533319156     49.678893216596201     49.690456599673119
H      50.244600457321141     49.449811948086882     49.103916341799632
H      50.120959155431336     49.750644035036565     50.564379539212268
H      49.454903586469328     49.496263078609452     51.010831962130140
H      49.093037481396955     49.449549338057594     51.573657284064282
H      50.095946689540845     49.710495871611336     51.260052479442528
H      49.594174647261212     48.750954819679151     51.165282767747179
H      50.663277315318489     49.864362152056167     51.804587440828158
H      50.167126623541748     50.401556621811579     51.938122368942828
H      51.034431370750667     49.210788643876924     49.758490571525954
H      49.554414803712568     48.244923689138290     50.792168802479111
H      48.644973067928248     48.917071960361980     51.852468118744049
H      48.966222428035429     49.205289032994912     52.108287812414019
H      50.719307445372351     49.559524327462242     50.452008704618720
H      48.749071155577617     49.395189950764902     52.822715525699905
H      49.184860287430126     48.701461439584769     51.989928990740218
H      49.753884810594876     50.174720310337008     51.257439210086979
H      48.340487923636374     49.892997290425853     53.142272871039303
H      48.213166864274633     49.481473859047952     51.732615368343161
H      51.557226398554548     50.096352568735320     49.649504830229198
H      50.159829827212405     48.863522146975725     50.888728315960712
H      49.466747361859142     50.301087371815264     52.117022351235057
H      50.204253264155000     50.131367856397375     49.426394870258676
H      50.378860684685336     50.760812530728572     49.019853943214564
H      49.122675775019651     49.974756675136248     49.789365252277250
H      49.442238559753669     50.753093117513345     51.900885302212394
H      50.465869041271702     51.436925203809935     48.605102633851452
H      48.606542916822384     50.410069953983232     49.447209768646154
H      50.458605316356923     49.411842304823992     52.329182018057161
H      48.940918589950236     50.795313585704285     49.028527023603999
H      49.655685591704689     50.195769700122710     49.325656342742832
H      51.593054150572812     49.450372538138758     50.251641378141763
H      50.768570124863608     49.101679241115718     52.867384264012792
