38
lj38_benchmark
H      50.000000000000000     50.000000000000000     50.000000000000000
H      50.311569452030405     50.273864658567760     50.631558357173461
H      50.197998878620524     50.527899984984096     49.542381768336135
H      50.186580652184077     49.615661518076713     50.837176213533311
H      50.011371166386603     49.703934767034639     49.315872614617462
H      49.648783249573135     50.419422386789286     50.886665954289796
H      49.834899535513941     49.604784726460039     51.336618981210314
H      50.115231634886570     49.110566729679846     51.756987329942575
H      50.374503959479291     50.952458488909748     50.526219266188185
H      49.204175031523150     49.161791956589802     51.378865493904122
H      49.624095738107016     49.367578703778804     49.849840639379778
H      50.306306069341105     50.699283189972903     49.043077280134085
H      50.441495154320030     49.524412639397873     51.973281718896814
H      49.543459099293869     48.772722970039922     51.354497521972483
H      50.833886708928333     49.334443715285310     51.154553160966778
H      49.317373136650360     50.330189443122350     49.798097651718827
H      49.577571720700277     49.848097460637398     50.278206506559400
H      49.531117480897166     48.713144447343886     49.444085758879112
H      50.925800453052496     49.120965140987714     52.191153001971450
H      51.319426584724226     48.856718383741629     52.716932644494335
H      49.377648282443701     49.849133124400097     49.483734846396139
H      49.404402547020361     51.020922284305662     51.090669135352975
H      49.229110913257642     50.205900393504258     50.577046469074844
H      50.372279787812786     50.675795996695641     48.246835046194079
H      49.657509464973266     50.361629956672559     48.966328344144422
H      49.452844081364489     50.956995126290181     48.712574589938995
H      51.709730190731079     48.505353219175724     52.696823406623281
H      49.724501028173556     51.012630650357600     49.327880436725692
H      49.974936304955641     51.614972470743034     50.635286434196324
H      50.508620198548257     51.878006628833958     51.014235266309782
H      49.128539106149439     51.547979144646568     49.246755775155499
H      48.739851638769892     49.326096481510419     51.670218763869329
H      51.428234767805314     49.527443676810584     52.937752449021247
H      52.458065112154365     48.269370680772120     52.653364325417243
H      51.643900981915891     49.720961416407938     52.320385863243835
H      48.623110268275319     50.506701814256871     49.571248225728652
H      48.381383332530994     49.994206357451077     51.510599052033641
H      50.498174569313875     48.620962449139554     51.453255539942496
