38
lj38_benchmark
H      50.000000000000000     50.000000000000000     50.000000000000000
H      49.830242165132269     50.097877829092994     49.522572579550271
H      49.330662301631449     50.440482368542945     50.075493735569438
H      50.628649258798319     50.144902407699604     49.886055687378196
H      48.803866487846690     50.771847498797186     49.719671555643387
H      51.068858631950526     50.270847036771677     49.569677998259515
H      48.191177640884170     50.707360021275875     49.413817572168156
H      47.843192374208613     50.396267664218982     49.939317345581543
H      48.624142940761395     50.282273797765285     50.074261702749645
H      51.129385883269187     50.019415168413410     49.062292768152716
H      48.194470534611675     49.994467914598651     50.064212576355821
H      50.622287147439302     49.450216385822607     50.287256401769149
H      51.434647659123527     50.206806664428939     48.389639839387968
H      48.997916140134151     50.336896774640486     50.524271658137572
H      47.478837478327733     49.635303511679524     50.005317400512958
H      51.310073952811024     50.077935458218583     47.743594679827360
H      50.525070782000036     50.307387453982841     49.121966995887306
H      50.863707960754816     50.679658712669479     48.727961715836372
H      51.211801819073770     50.540702081045737     47.142877882561692
H      47.307902007083833     50.309447798618066     50.275922368074269
H      51.082926015242244     50.943523060397226     49.998272183907716
H      50.646303123964472     51.232176917321951     49.769406111230175
H      50.689732113005320     50.660385432061098     46.766688138913239
H      51.021063513412884     49.667778053311885     48.136818434940189
H      50.842361690235826     50.719095871675663     47.928837256353155
H      50.222139635570613     50.339868998701419     48.394608079485451
H      51.810990788150676     50.752444934647727     48.600734315546198
H      50.674357125114376     49.423118801979861     48.505432565200422
H      51.596920069710663     51.397794498928931     50.340984796605461
H      46.828726875902134     50.315809571829007     49.698855142402458
H      47.180672526393991     50.419827314225500     50.855774663291058
H      47.402583378471711     50.950727894401794     50.958291820884966
H      50.577465445226224     49.931179838073767     48.380685247600965
H      46.955472866464305     51.085797743648534     51.514214072503087
H      49.201017191464800     51.227750771550276     49.250622078727581
H      50.023560656139360     51.001836318120489     50.113082986686891
H      46.776841513707339     50.396270516029773     49.110466488451870
H      50.294036219924699     49.087451115616240     50.613825770844350
