38
lj38_benchmark
H      50.000000000000000     50.000000000000000     50.000000000000000
H      49.631101805705121     50.255196541454346     49.372783968461981
H      49.611060465456482     49.628487869870895     49.550019945226296
H      49.122252748000570     49.151547420956540     49.541140527317580
H      49.279400253827419     50.193920472143112     48.734672335248661
H      50.364365422780921     50.113271636180443     49.207377885920451
H      50.521005224785476     49.420888074955087     48.865917983755963
H      48.727043184387085     50.607019388638363     49.129810251698871
H      50.412086559063113     49.929792263377443     50.528991596317702
H      49.008150908770929     49.702263646636133     48.780705032121254
H      50.244802893517971     49.802000862415724     48.582451491854435
H      50.128919952242953     50.549755993949560     48.812255585770764
H      49.566792346600323     50.579438940805602     49.851975073927989
H      50.108055782189837     50.769898879090924     49.738346934657578
H      50.642037056634138     50.813016537872990     48.425440792506315
H      50.714053847435061     49.377929402794543     50.758936570284419
H      50.064559525307409     50.887728218528849     48.030320726117814
H      51.175450350433493     50.710293957588249     48.726412707344693
H      50.262316918423629     49.630430533527004     48.100454140819267
H      51.230957794842162     49.769228880555666     48.738155494141239
H      48.667674467719621     49.992490496525654     49.064837917600251
H      49.910231500392229     50.320381963021916     50.987574840681951
H      48.445213048386890     50.947748824197774     49.749194801221442
H      50.222035129055342     50.152385069586906     48.198486313529308
H      50.713992282415127     50.335505537781557     48.622135718273348
H      51.920841743532243     50.147708594406716     48.641765957577348
H      47.966162221179957     50.793808274314785     49.585727144603190
H      49.971664396103620     51.280660870820135     48.899946059073535
H      50.065721590229636     48.950085282893575     49.322288290746648
H      50.417039244057314     51.380568991995531     49.581977285159141
H      49.049113662345640     51.352192310544041     49.549339126864069
H      50.425399218555405     48.828998334185307     49.974302524670350
H      50.300605156661248     49.450023631966047     50.257977289295134
H      51.844377074700738     50.755453230628454     48.325844116329954
H      51.106170672874107     51.462782861435350     49.253889618147490
H      48.501982892853903     50.976532936263027     48.597916209767398
H      49.477497509765250     51.598951058550966     49.239777258779093
H      50.273722075525292     49.190599238429542     47.767983728402150
