38
lj38_benchmark
H      50.000000000000000     50.000000000000000     50.000000000000000
H      49.469769931381428     49.554609326838708     49.734272677827853
H      49.874031883037532     49.527118337065716     50.252094279890855
H      49.001675013695063     50.027856830429556     49.952856174716032
H      49.078868572270231     50.293199635613803     49.219913911671377
H      49.346929856559662     49.009966292838683     49.599720313257890
H      49.740095323351277     50.713708701929924     50.239113938872762
H      50.332933810286931     49.106250764015819     50.126122961939330
H      49.488442836873979     49.823681221442001     48.961856516559486
H      50.002212512304567     50.070214241285576     49.397764880844903
H      48.615395699988923     50.555101124499807     49.451679778014451
H      50.672320597300576     49.448933699910484     49.988499109525975
H      49.180882790932188     48.614340168915170     49.864553071236642
H      48.115070235931199     50.962705647185565     49.077113982845091
H      50.396588576325662     49.606060639133780     50.480277122479990
H      50.856724182819747     49.604690933180251     49.381043388494888
H      51.417062004670626     49.714321482030968     49.126670128739732
H      49.784635933154824     48.626822984895774     50.196886369586707
H      51.283302707225317     49.889679677098250     49.789711398891072
H      50.846086245076584     48.862672534212884     49.279065384354418
H      50.178430383547152     48.762697949629953     49.422871472415366
H      52.024357286562868     49.300326909043584     48.883328678495225
H      51.175816612590467     49.066176097136946     48.773182203068409
H      50.019230175393901     48.918636159464704     48.901472977906764
H      51.731656297708675     48.838442444194072     49.420083329594547
H      51.905935284628569     49.144043645231413     50.011647016493548
H      50.378681830217481     50.588153271306311     49.059860563404683
H      50.654830913108533     51.087194683444231     48.519481329298181
H      48.597397854769163     49.489521088372435     49.977694836643607
H      50.966603742748894     49.582654441524625     50.544875602929672
H      49.608627771180821     48.742149262174742     50.799489644005462
H      50.721078511266718     48.131059600871211     49.039206845743301
H      47.981938349687930     51.721757633409119     48.942534380290326
H      51.384201496748275     50.325075252896362     50.082584076212854
H      47.391594973338080     51.932570472635348     49.194016411412107
H      48.429909265391608     50.715178947904761     50.169569161851243
H      47.458917103104618     51.618458462667519     48.362021909297063
H      48.864831981197064     48.107379691199327     49.712808986271590
