38
lj38_benchmark
H      50.000000000000000     50.000000000000000     50.000000000000000
H      50.076299242948821     50.298262519878783     49.328181392089654
H      50.027151835480566     51.072995226890647     49.513652398179161
H      50.543831425720782     50.214192991252645     49.579669788901356
H      50.101008955975146     50.289429745942250     50.614752635783717
H      50.120660586241961     49.807808821376000     50.446070171279793
H      50.060841746817971     49.597950683947886     49.332425317158666
H      49.503226814757106     49.907258355453045     50.968009594621009
H      50.915340687539974     49.872907089929562     48.963025365446221
H      51.065850953108871     49.882775201657289     48.394438253627222
H      49.527659264235879     50.685908165530336     49.917012063685753
H      49.719713997782378     49.675173526581133     48.776864484624035
H      49.971216152188632     49.364579743402743     49.964076235778265
H      49.309198697844337     49.684228803416019     49.422706149480632
H      49.001348980512873     49.206181649010141     49.191015548764824
H      50.490232068101122     50.553663019888049     51.007063516552478
H      50.371633549141343     48.752581089985220     49.651595951245298
H      50.313786206565766     49.245212563835516     50.878335344024570
H      50.603939538482138     49.534334227958070     49.943102716727125
H      48.267843142700876     49.055538330706753     49.298033789819087
H      51.503216540602430     49.934696807275259     47.992666190569409
H      48.545159262901656     49.076178818726007     48.842834570355123
H      49.754252077354124     50.534625053357921     50.909143249298367
H      50.722875470315891     49.224766613615166     48.369197378531076
H      50.448832344008274     50.098762820466547     48.787179784966717
H      49.732989301826180     49.304609112900671     48.413163786407559
H      51.012644047722119     49.693151076155551     49.556536315959995
H      51.164059642298859     48.929484312645073     49.651290030406912
H      50.096043878153601     49.777002097888975     51.296112085560459
H      50.585890018803326     50.813633834482602     49.546716902479247
H      49.251164825355367     50.554573395778604     49.249510264560932
H      49.960582867861497     50.957900437611784     50.063246369641803
H      49.180756417446112     49.576127098188131     47.930883563095406
H      49.124782263369411     50.050811955713129     51.440268387257156
H      49.490534883514599     50.018085460156435     48.413398992638143
H      49.524609130332607     48.948844345609182     50.057876706464320
H      48.761778774951480     49.340352151097484     51.395857254718038
H      49.681498218197639     48.861906599692006     48.169998248090572
