38
lj38_benchmark
H      50.000000000000000     50.000000000000000     50.000000000000000
H      50.619037711599617     49.629759239946395     50.243257474570044
H      50.717837655249248     49.011665197569073     50.093921050736505
H      51.205282464035598     48.528667282356352     50.309524460894707
H      51.448431430754987     49.302372591917155     50.236700655616204
H      50.582162920015179     48.634827469390139     50.686146037419903
H      49.569360689437310     50.253186772555004     49.418813982120120
H      50.472394135293747     48.473504786095198     49.711816199487821
H      49.558792878845345     50.761853566559971     49.511137743565165
H      51.820294800057823     48.736395734234975     50.346827942203262
H      52.272603935697454     48.348217345204532     50.563634678308652
H      51.501403331214725     49.124407039495104     49.629805924494470
H      51.396157281904742     48.952633151873094     50.639677950771301
H      50.817298986037393     49.227174600261236     51.086937804064263
H      48.879626020911843     50.722927482662584     49.576909523768855
H      50.189333823758815     50.668744987131731     49.453646374348175
H      50.659468869822376     48.040020467192697     50.601510797963641
H      49.268792548559603     50.123061026860569     48.972724180260663
H      51.123025410347729     50.239512311926774     50.364491180665098
H      49.270500964453923     49.475373741813982     48.889948790132017
H      50.734261463731919     47.862348659748712     49.670454301528913
H      50.704966599018185     50.329040519402888     50.102427555249911
H      48.860654454785163     50.552212953190235     48.579718081145970
H      50.986213084350261     50.532235154549710     49.449561303150070
H      48.731187574409596     51.255572600502184     49.546936045046913
H      49.616772298054045     50.546995738069590     49.008510378711001
H      48.214065916945806     51.741410130073533     49.878311788175765
H      51.857449866577291     48.401268538287667     51.239452426438007
H      49.934040935828911     49.541498372899028     49.175352660269475
H      50.690705497469807     51.104891802353706     49.025566635696514
H      49.106008829973511     49.329327477009073     48.167463365128683
H      51.128801364543435     47.766905743941429     50.732121666688066
H      47.742987294748403     51.392405880058078     50.047613958818211
H      48.749265307077806     48.965025449796272     48.940213180762385
H      49.735498353182251     49.063025821170179     49.252050198778889
H      50.010462135898230     49.048115278977306     48.613964195827286
H      52.330801849815217     48.863092981239873     49.802844887145824
H      49.368315944052256     50.917958739869974     48.259034373464168
