38
lj38_benchmark
H      50.000000000000000     50.000000000000000     50.000000000000000
H      50.172875788861226     49.831282095217304     50.676215581813452
H      50.513630183816993     50.308698528520615     49.818101697318220
H      50.891703660972318     51.004000983509712     49.961891667280398
H      50.723823470585224     50.134456697141452     50.849922454667421
H      49.770204166931613     49.650934615978429     49.541624419644627
H      50.691971874427644     50.335192593660814     51.592944935173705
H      49.854090634792179     49.294442951683891     48.979129472361436
H      51.072675636476113     51.092953804714227     49.424098075433577
H      49.612870920168490     49.014344449231700     48.354564332398660
H      50.758642542275624     51.526393013429526     49.415849250856830
H      49.760496035938871     48.470320931665718     48.213097373423814
H      50.260056713061836     49.269497162168349     50.699120545152510
H      49.617583378671540     50.007701840010647     48.909448652903166
H      50.562856374887104     48.879830988114101     50.424246363269511
H      50.476011822737171     49.480788839496583     48.848063524060272
H      49.427283060223935     50.408826680912405     50.295979787876178
H      50.782396043288379     51.052156088313382     48.813156021610631
H      49.682694086263496     49.216954175887324     50.958337056193656
H      51.203895526819288     50.784672104983336     48.374124768334177
H      49.399158544402624     48.566683610356620     48.575786287833893
H      51.087804031471507     51.182978926906060     47.815806806475969
H      50.215248162728130     50.722534380790250     48.398467127345370
H      48.884727905968887     50.151478744698160     50.740914968785845
H      50.946327154434805     49.390607810826005     50.705952010161035
H      50.150457344621948     49.007452620056810     51.556673194889100
H      50.225942542991859     48.958414133780039     48.204079595071427
H      50.237516276506561     49.314119614415176     49.954193597502218
H      49.517342746769032     49.929817099963920     50.634265575769192
H      50.517202811881809     51.550705045447579     47.750576182797019
H      51.004697072158102     50.605899230513700     49.560828807370100
H      49.052604792991531     50.271018772484915     49.214471562648107
H      48.747102095039885     49.800304816367742     49.683541531961353
H      51.769855369595930     50.475797614945833     48.791585637827765
H      51.069027312288789     50.964895478650135     51.736485377329991
H      50.280399814322365     50.594313372563690     52.003007977717409
H      48.782031591808980     50.946662806782150     50.739487101210756
H      52.086360156828967     50.035940200128813     49.137500040818303
