38
lj38_benchmark
H      50.000000000000000     50.000000000000000     50.000000000000000
H      50.521307015064380     49.959308872364645     49.418411963425200
H      50.169421784952142     49.845116340796011     48.967686176784113
H      49.534950165324993     49.536751691552610     49.209919398138439
H      49.447361871166294     50.209783495379718     49.636303310062061
H      49.075771271390401     49.243217071997535     49.495026217666819
H      49.152806598261250     49.396044951697995     50.169746299032376
H      49.129334065829887     48.671259200137001     49.862820772749586
H      49.141520902394006     49.799543438324910     50.536649978391452
H      50.202757981010123     49.756090132083266     48.384854066715903
H      49.686926122743145     49.994001023740985     48.629990634055481
H      50.911759378242984     49.670771570513665     48.167613061795109
H      49.194427419795559     48.856014994355967     50.745420591508520
H      49.134104914575829     49.732403496103807     48.465175596311347
H      49.619455745498030     48.463719124043187     50.259705960737882
H      48.803093704744050     50.156075950071369     50.275586834001736
H      48.790618292545084     49.042863584372085     48.485986442276761
H      50.500214813331972     49.388573586086885     48.778448024771698
H      50.700546399686495     50.121772136854069     48.763722990925871
H      48.850389675954936     50.153968865450643     48.438196364731176
H      49.604463362220400     49.688025404355564     49.770687692259763
H      50.082102851744104     48.375723495645879     50.775384710426579
H      48.951381272677956     50.570293217973749     50.529447375537814
H      51.141426610358153     49.763041080552327     49.135181454259751
H      48.538564956008209     50.626038958591444     48.448634998739649
H      50.329221094585655     49.398398081327009     49.703648532659138
H      49.331041087197370     51.156998682482040     50.539911358576283
H      50.917468636926266     50.612103466944752     48.872127530445368
H      49.285186150695210     48.453417614524199     49.117594626146328
H      50.583410519955372     51.254611260097441     49.007658669988935
H      48.933700957061049     49.477850757214270     47.967484550387674
H      49.238003959280064     51.778912732608831     50.331764108283345
H      51.304931716702114     49.391644727961079     48.500262717330749
H      49.545888220085153     51.714640056878906     49.653741715844788
H      49.609440837501793     49.436688057281096     50.783435720056183
H      50.018579553791454     50.797042830169516     50.497709418023341
H      51.646561607358812     49.209886540295273     47.873437352277648
H      49.660590523160735     50.284968275626674     48.165996060281124
