38
lj38_benchmark
H      50.000000000000000     50.000000000000000     50.000000000000000
H      50.550256743470996     50.361043317010477     50.224699018801722
H      50.040276909417429     49.603990119137926     49.672844832378992
H      50.805865021103152     50.682773732665126     50.743507284611141
H      49.643039881772850     49.148912886932806     49.540205525551940
H      50.941618221687698     49.764330159085489     49.890741938053282
H      50.174508549366855     50.821411078117279     50.960031278890966
H      50.691602273340195     49.121405200946022     49.842676813406342
H      50.658108392581724     48.994045826227328     50.585396957016002
H      50.263982080557447     50.759131765576157     51.600301653527211
H      49.681021123078231     50.471313351139358     50.875789481760592
H      51.184056652218722     48.621060483887867     50.812473087596857
H      50.149539994516317     50.282808428077473     50.842718508171657
H      49.306103214259714     49.957362156180707     49.840824806101132
H      50.665950732333847     51.107132538731435     51.803185307100719
H      49.891614844728714     49.836171485650333     51.267765712530839
H      50.700943039219375     49.636361965470414     50.439893511601781
H      49.228410869028096     48.519313988700112     49.307366561016273
H      50.716186527287782     50.551950241912024     52.315720131570295
H      49.260130313677628     49.420980053086915     51.345702401633609
H      50.022779952197268     51.482481599058502     51.752919572876635
H      48.835653891240632     48.551916048356205     49.643154418230559
H      50.947486598062028     50.778398658060603     49.950556723475970
H      50.474016790436110     49.119957998132442     49.131974714841697
H      49.942224224550515     49.605073153143941     50.504501448444884
H      50.596196038382914     50.758171455298367     52.793823188872523
H      51.000097364090990     51.261288598568171     49.406016848845390
H      50.190975128005263     48.646707812853101     49.442076216822848
H      50.118646453770360     50.520834286544989     52.990617783789283
H      50.434339981805209     51.105462890299265     50.113621763585023
H      49.939673748238633     49.864120559625810     49.166132550881251
H      50.492752331036144     51.748554123316055     49.518690808906825
H      50.821087868877576     50.284155980878026     51.314338283859172
H      50.246547382670741     51.638319001794720     52.452455862051167
H      49.983046077299257     50.871495110339637     49.739280406571226
H      50.571657810121948     50.166640641085792     52.786641490332592
H      49.337798056544123     51.476991637318470     51.879193225944675
H      50.853936653999213     48.356907309807085     51.174608243378245
