38
lj38_benchmark
H      50.000000000000000     50.000000000000000     50.000000000000000
H      50.485887681317735     50.354307231580165     50.208990932340065
H      50.041349532177946     49.738610415452399     49.450863804324669
H      50.041728744712685     50.089918323640518     48.964148577507217
H      49.951808337402269     50.955988468558573     50.164221865149223
H      49.310908030821395     49.774644480574395     49.031738763428798
H      49.903979021617310     50.682491910129905     48.566822989499578
H      50.655518252673922     50.802589587644746     48.479781990402387
H      50.654523527210820     50.024939389594373     49.358089231124680
H      49.663879179665088     50.520330864895854     50.333804676463281
H      51.236219756099423     50.480659212069654     48.678359130668483
H      49.489505005047832     50.127382310143346     50.761641438958485
H      49.143170951805942     49.612308529773053     50.574988013316556
H      49.751415583858886     50.245897868592373     48.346699800683012
H      48.872273390346663     50.226437639062340     49.211221912005300
H      50.850926448724707     49.922118655738736     48.708823171768131
H      51.490033010941822     50.300729545062097     48.097704924575226
H      48.757489259813390     49.140006143286115     50.359109517982830
H      51.173077313069214     50.768291854725177     49.263426127834656
H      48.522502391693692     48.482970490532210     50.509403805819069
H      49.992293943479616     50.436883919959349     51.184005053533930
H      51.341087436852952     51.347438152895343     49.257932880673188
H      50.599766477981234     50.629169075289212     47.937842252421611
H      50.466188308916770     50.107571577895577     48.198418948079890
H      49.734259355741678     50.987768603069789     49.679733685029262
H      51.031384729832695     51.917894838923090     49.284876889587309
H      50.064736670186370     49.823876152497057     50.699152216816586
H      50.368572250099440     51.353978251131736     48.185778167645644
H      50.311791873800686     49.410989825703240     48.943954163057072
H      50.982271647709204     50.285609445487296     48.183181473023708
H      50.036322317069626     49.757031204836167     48.022515534416968
H      49.618359028278348     49.329738414407046     49.108010392284498
H      50.160738169027617     48.911668626602477     48.601475797158358
H      49.393663084671743     51.090935221497013     49.127422102900468
H      49.846317772408554     51.743137069486359     47.960604383354202
H      48.689200847882049     50.023355266834649     48.485445207870683
H      50.717746504575722     51.981617843617443     48.735669230843328
H      48.666878791344487     49.899179823485333     49.794333989788292
