38
lj38_benchmark
H      50.000000000000000     50.000000000000000     50.000000000000000
H      49.339623125054487     49.884424856760553     49.885103242638081
H      50.174379657597378     49.979110360998817     49.387379674626594
H      49.727822214961051     49.345584627786401     49.645827629066702
H      49.986018968521378     49.702605440959445     48.699754976455388
H      48.814997751114312     49.770287747834161     50.287411597280126
H      50.068920298657055     49.927517174512829     50.609279891832372
H      48.869511907075719     50.053051189610564     50.996130403326994
H      49.652680787682456     50.595029119647677     49.868188693889927
H      50.474143021863057     50.386633776172573     50.114036479328497
H      49.615851240397404     50.111014394323604     48.734961547387343
H      49.548400881666119     49.870959528980961     50.771384820615168
H      50.112413934428758     49.204044822745665     48.664615220907834
H      50.347323902660612     49.589859305573810     48.090779572849918
H      50.894349379273095     49.302804235050374     48.820355327012223
H      49.461479856881780     48.877529127460221     49.448124958943630
H      51.481307458268390     49.030992173128475     48.725550126747841
H      49.972892907261887     49.106417889783934     50.005849527599523
H      50.146579722393476     49.663011656254497     51.124588495549744
H      50.602847068204838     49.917991865429762     50.496708114762050
H      48.364786142125702     50.025242729894195     50.536788908901691
H      48.433548723087831     49.387044428959143     50.931612309190612
H      49.191775682254132     50.357490338720659     49.183122166060137
H      49.969900146871062     50.723027021228660     48.593817720176524
H      50.370163192382400     49.508965278397064     49.055842545566087
H      49.066507062509174     50.188137806748614     48.229936349260790
H      48.653928688511783     49.110110108662582     50.527287314094004
H      51.101933936752779     48.345261143276844     48.909171643248548
H      51.824056754213018     48.574022514735660     48.709000357930520
H      51.517548554825993     47.948320582985332     48.955301390721644
H      50.870715574929577     49.544805798248873     48.112334788954129
H      49.264446777647194     50.459560832110824     51.507189609841582
H      49.940034431512331     51.201781195010113     49.012718840315770
H      49.604160035369652     50.353428119522306     52.171959259763298
H      51.252906942385039     50.074707237757536     48.209144698071960
H      50.303462987215610     48.939801548087232     49.228560171891388
H      49.993650852694977     51.230106333953763     49.621027800570801
H      48.231988704270861     49.453665012809481     50.194384115686816
