38
lj38_benchmark
H      50.000000000000000     50.000000000000000     50.000000000000000
H      50.761125169629047     50.047977603473868     49.851036367805271
H      50.698184312619723     49.428940817979473     49.997793228986218
H      50.900952855783977     49.210625080627260     49.430254198942599
H      49.888379943621352     50.734116141423506     50.065052651924312
H      49.712813809139213     49.743194228812094     50.427044832384333
H      50.658273926519406     49.506686972077119     48.820365373229038
H      50.079239599949275     51.324811864668995     49.895778096691956
H      50.880389379392092     50.612830064853796     49.789925635849599
H      50.549218339508414     48.890214359167572     49.694958988206551
H      49.073976936448950     50.058461812271645     50.220593390309901
H      49.197952548528257     49.251146861206905     50.732928963401598
H      50.613010246470431     49.094023947909470     48.481545221539555
H      49.962770365998630     51.171340203929297     49.146214232680322
H      50.011025630891972     49.658859816905895     48.555734496980882
H      50.424542539996345     51.585669430058438     50.188830193458649
H      51.449832983734268     48.804137747369111     49.096712669643523
H      50.539048977363777     51.291899955674602     49.584735927516839
H      50.783550957329986     49.219002464697169     50.643880233887870
H      50.996052841134762     49.832371573119552     50.238661858735227
H      48.603297810381477     50.245054484484108     50.785624243756629
H      51.233788834543276     49.798399489317795     48.814913658791383
H      50.225593605052111     49.141433759973033     50.016691789403481
H      51.015229404492814     51.612694404668822     49.140412199377714
H      49.432279108592653     49.562295469739759     48.454729266517575
H      49.381096884825851     48.927044685377474     50.103252727400807
H      51.915338110118341     48.932177328388626     48.492417753725015
H      49.196921477442039     49.702983667454532     49.135869648487642
H      51.901778694435272     48.229719556949796     49.201437367935021
H      50.193161998299004     49.082649327933701     50.712423555827719
H      50.273384831286393     49.548302958456759     49.381272822078756
H      50.194912761662088     50.484164564469232     49.250902929637107
H      48.823291151036507     50.400738397872715     51.525013268959626
H      49.603469617075461     48.712418532666540     49.664373308449072
H      51.095354757344026     50.640800651665856     49.205114351262480
H      48.657483461972454     49.640632306958530     51.251635010085664
H      49.517454981217675     50.890631879482576     49.298285387793598
H      49.330301475539834     49.786909842943160     51.234489343412832
