38
lj38_benchmark
H      50.000000000000000     50.000000000000000     50.000000000000000
H      49.780899769176884     50.054165556215104     50.760701979297096
H      49.226573596105254     49.613226559424348     51.133815442128601
H      48.628233515085185     49.122390238670057     51.129330324069329
H      50.440428017458480     49.428495082949418     50.332669567990152
H      48.828219517955873     49.619509028511160     50.493499071366386
H      50.909982314232231     49.819865644498883     50.251531813840330
H      48.938941038165893     49.866251238382695     51.759855406379828
H      49.772988427486546     50.808717052256654     50.659630770013287
H      50.344443296663172     51.190863366250476     50.497981186519588
H      50.380674825117467     50.333396223755571     50.293381119739912
H      48.502337525682620     49.777793418092266     50.887639856243354
H      49.200073341194539     50.317695000403759     51.442888009135913
H      50.506730454413912     50.495764326050555     51.031625538063622
H      48.517918358811528     48.649356593029147     51.300564015115675
H      50.344941496252325     49.555278319804671     49.533423563439165
H      50.178999731680406     48.788576924836505     50.213281296878868
H      48.041103071959114     48.604779752246714     51.871758543190161
H      49.839812701223003     49.440229443345757     50.750485113814136
H      49.431376758262637     49.451758786819354     51.791175473753718
H      48.973050411198422     49.345289736585478     52.406974883105946
H      51.014968481559201     50.039384440351867     51.368585843954257
H      50.021562453467659     49.601425822252665     51.247369341542125
H      49.841928392557499     48.314185602073145     50.358446254676991
H      47.801197516375915     48.312003624076041     52.374165083743875
H      49.749191008828703     49.546361880800433     49.428825056606897
H      48.820095392734885     50.086410856212829     49.966143905538210
H      49.857295391809316     49.225005984543657     50.000418286670680
H      50.355529450032549     51.354847011812986     49.902328705626793
H      48.873549559447241     50.627686561816788     52.020219649712956
H      50.610975228255363     49.745856005787431     51.742884716305959
H      50.587467798680493     48.354998687468012     50.667095265235872
H      50.258475344025769     49.823588128153254     48.876560542930342
H      48.004495992213791     48.219625955041963     51.304673074499846
H      48.923827252067355     50.458957341403796     50.745004419424774
H      49.315155691635191     48.054686308655562     50.213308773503357
H      49.119724328372911     49.761231764699083     49.225111794925958
H      49.480324101168009     48.924374428453383     49.784351424698869
