38
lj38_benchmark
H      50.000000000000000     50.000000000000000     50.000000000000000
H      49.363406397687605     50.265582307379191     50.065834110384849
H      50.384635682683175     50.388602702657153     50.336708145890078
H      50.310648023766042     49.648680029686084     49.688111560624492
H      49.550373523018379     50.995351496250642     50.312167887472562
H      50.462528078492198     49.027798055647864     49.487725697908090
H      49.764865584764649     50.924287035780168     50.981703276092013
H      50.301921037661273     48.301442444108439     49.751090832435850
H      50.103125423575854     49.226070302974222     49.078866985632331
H      49.913322693505407     51.334464349323405     49.863824412797548
H      50.375597031355795     48.842519425509543     48.647690159487816
H      50.790778796001078     49.845779249119822     49.610971831097594
H      49.159749652807179     50.697250744185759     49.925641883096390
H      50.601587841443092     51.675141329900683     49.656326934157043
H      49.981091644690871     48.896076627459820     49.512638384383791
H      48.816276138947337     50.712665479285015     50.496848172459174
H      48.249489104349770     50.935514647736575     50.446058984848129
H      49.736328683807116     48.097335087750828     49.489916786638119
H      50.758298895324472     49.298206721328043     50.014323656291005
H      51.118302320403139     51.084060236914837     49.474158202722677
H      49.376733906490124     49.281519919740205     49.548949110106669
H      50.702123815139565     48.669633052790694     49.932176762927014
H      50.194361492085946     48.243710494053772     50.495915598233303
H      51.222186987578510     50.198084968924924     49.135334242716439
H      51.880685120319860     50.293471049189016     49.001717929804876
H      50.751267925624227     49.182460673387631     48.573054764814842
H      49.941070981542232     51.385212749123426     50.494289574155516
H      50.406098446978604     50.696978415092325     51.367703977103098
H      49.233370864772290     50.956459149637382     49.295616628455022
H      48.761408776357896     50.521888380020997     48.950832199301601
H      50.873203085090587     48.213399927916988     49.640621743008040
H      48.581955438863758     50.437328797705121     48.292407274296970
H      50.989640974378553     50.652586764532650     48.700096263140395
H      48.896785415454211     48.922213759554793     49.397281656741484
H      50.469344330552765     51.464826756953016     50.429843508722001
H      52.442806687904238     50.284870282731639     49.296426522679745
H      48.854263733253639     50.444444069258111     47.755067778024276
H      50.033827228385611     51.924508998070323     49.231921232387286
