38
lj38_benchmark
H      50.000000000000000     50.000000000000000     50.000000000000000
H      49.443921839263488     50.122825053024712     49.617178333129964
H      50.214762036062666     50.310635230195416     49.290403999186232
H      49.379611910889750     49.674723610800264     50.324005719403097
H      50.824462214563454     50.382712255166638     49.392665721711680
H      49.088093025890508     50.528869897467246     49.625615000801801
H      48.895156460559932     51.223715450904557     49.407777631780995
H      49.145758339619022     49.937068560723546     49.034849652950236
H      48.980530494118106     50.898540186700373     48.960595860587247
H      49.498072293356856     50.145517535842195     48.422538882017861
H      50.768339424620876     51.102116748402977     49.173266076831830
H      51.617323337931431     50.442020271108746     49.389268888451646
H      50.782022024699863     50.584420924867686     49.911497603460127
H      51.065713759046304     51.238940161031451     50.260918590602074
H      48.676495631555497     51.288060312255645     48.765366770023661
H      49.765940765101739     49.339956526931601     49.745334159463816
H      49.449054341268088     48.800152689204296     49.584640490733179
H      50.850594486364614     50.111486400358601     50.053602199835218
H      49.247748730780650     49.943172874454341     50.725483302474345
H      49.156757772001669     49.694488683944108     51.254818824311556
H      50.571012119990208     51.427311896013038     50.498415839422876
H      50.701620604299841     51.800805583583838     49.977540671617867
H      51.045920278359510     52.397414759542045     50.066675867693448
H      49.995087977871250     49.024217834652418     49.082426817113884
H      51.086691005260207     51.502114804133178     49.503744746026250
H      49.093721604857066     49.000017646671772     50.605001560195227
H      48.967838039625526     50.318758706030557     48.661590970738402
H      50.858346000246968     49.963784123200391     50.742923133701169
H      49.503087780576919     50.478931218618278     50.846324560775095
H      48.785322964307021     49.907712675273515     48.052029189650384
H      49.711718966717648     49.077438657744267     50.964449713974311
H      51.528710813360995     51.230211768806640     50.809313633441533
H      49.119937812073012     48.254108944840134     49.607018916954473
H      49.817188905497623     49.949306450985624     47.818553421813675
H      48.498545506737358     50.855613854047270     48.486694332625881
H      48.647463781765836     51.875388862419747     49.290970281100897
H      51.425177790666915     50.203365376619914     50.322536214472187
H      50.555424820186403     52.196352379713431     49.585972312826875
