38
lj38_benchmark
H      50.000000000000000     50.000000000000000     50.000000000000000
H      49.749001712401558     50.055168249028924     50.500299523570021
H      50.428837928285283     49.606730414301310     49.779035639138044
H      49.141577799430351     50.398343847541710     50.297213533260695
H      49.642883833538733     50.340469549616728     49.803176030493717
H      50.145531571013628     49.920856290423771     51.122988684037722
H      50.160801683938082     49.403345727938706     51.070518681099713
H      49.993614578386229     50.582452740157294     50.514461273862132
H      48.545661496840225     50.908424265971973     50.450836811740295
H      48.616777833008562     50.549004470087660     50.880234551862912
H      50.156822865778786     48.858301526655232     49.738236423466631
H      50.591371147031992     48.739728423307142     49.174186757935033
H      49.392817114796422     49.761886741218554     50.901616977233367
H      50.584871348161933     50.526334286387517     50.007206249175056
H      48.910639931547429     50.172421570137423     51.277926051784100
H      50.043005402406671     48.897519189207820     50.302205350434285
H      49.411439547817842     49.050198119289178     50.484998365041605
H      48.302626861515208     50.763714580868331     49.724943226804534
H      50.262487089003066     48.355915250259358     49.332367767607813
H      50.776515448715990     49.170717856067718     49.524690236712487
H      50.820578719971223     49.418221998527983     48.778249920743598
H      49.712509391743097     49.109568703875524     49.263885239940393
H      49.318947314024228     48.699793151885352     48.782138052991620
H      50.778171191131293     51.008763225027060     50.485354790579379
H      50.929639778232641     50.179667160423250     50.203506063545461
H      49.608488846180833     48.135650493365873     48.320162698195681
H      50.046823143782689     47.924741316763516     48.080139036690682
H      48.420241707246596     50.044400251672364     50.864814594344082
H      50.347133266989424     50.469494472629513     49.253406669892463
H      48.806806204238647     49.776479808042119     50.057781821444351
H      50.233263993468327     51.138289458705614     50.555082961938297
H      49.195294203663238     49.193968683850422     51.049073580246578
H      49.391948905811823     50.647826442364668     49.279869389841267
H      47.697805274318149     51.200876853235052     49.844662547323573
H      47.373074703337025     50.980602397397490     49.416261782569791
H      48.129195114799359     51.156525361836408     50.237738783388636
H      51.134310948634791     50.869976898715088     49.624635317798443
H      49.835178128597811     49.725531826984067     49.615154926090213
