38
lj38_benchmark
H      50.000000000000000     50.000000000000000     50.000000000000000
H      50.109931646302833     50.556241759329303     49.660970176484270
H      50.643416394595278     50.060263065365170     50.095564947488327
H      50.207377650570450     49.844329664927244     49.538707256438144
H      50.130282702229188     50.394451672563491     50.471996101600396
H      49.417560302003366     49.864057412498440     49.584433622133517
H      50.307712468230314     49.268292955211209     49.996360292777332
H      50.834599125624564     48.974523226612575     50.182189967724433
H      50.517465102735073     49.120615229384612     49.258820087390959
H      50.835368034191063     48.534991876969364     49.130881225381771
H      50.623196235860568     48.347085745303431     49.574801897576847
H      51.263459446021130     48.759419014123289     48.488220704215294
H      50.290002889011610     48.766951920790532     50.069935582030681
H      51.376043916830838     48.478476770521496     50.136804292369270
H      51.389162269412907     47.885057402414418     50.539945731965538
H      49.345263894618228     50.463134193712762     49.846594119594236
H      50.624996106333114     50.568714203178793     50.686214941523403
H      48.766133003165983     50.407478376367074     49.917217518342134
H      50.207503501537879     48.740337680892630     49.388798663621699
H      51.943196566868039     49.035099769449182     48.816200493709765
H      49.958375714123733     48.177814945444069     50.209285544893241
H      50.781645976311118     50.684516973369917     49.396429532365424
H      52.496299736398832     49.296898887481618     48.730563688926772
H      50.835501741015150     51.107037831686505     50.811324531366928
H      51.441337990004996     50.770626497145969     50.871442123024870
H      51.338570687256151     48.360355834085865     48.053622061069987
H      52.397278358922094     49.424267009719749     49.419388445366486
H      51.164412642534543     48.648428136234457     49.549562989948640
H      50.391607015662366     51.383419791852532     50.831317291500511
H      49.754446702639740     48.259750864144870     49.065775869784339
H      50.952700032199516     49.462810367066481     50.723443820229562
H      50.960197480740703     48.274015228613138     48.718198556195027
H      52.795763213246026     48.698158974513262     48.707429492298424
H      50.909947522889212     48.678764486907603     47.995646881148780
H      51.673779707384362     47.734963757750300     47.785000390732108
H      50.691609966494127     48.263440174735450     50.500898138157638
H      51.342064743168223     50.305217502914296     50.675898375928718
H      49.916930871523626     50.710121430152171     51.080561171990880
