38
lj38_benchmark
H      50.000000000000000     50.000000000000000     50.000000000000000
H      50.149978227667667     49.748288809953074     50.651779978584031
H      49.402414306927341     49.956368158484850     49.675235875547649
H      49.434524698734556     49.163716486017400     49.627107093516834
H      50.160080455630649     50.529126066358089     49.775525365382393
H      50.681636338446758     50.091577911314005     49.647777459839112
H      50.566796400360587     49.478162756662520     50.107556454028789
H      50.523081029022727     49.875878685653483     48.993473694186086
H      50.440478773389401     49.722168230912708     48.487378047820620
H      49.958387145872678     48.973655643487895     50.221938147036170
H      49.316594819774046     48.622885423086153     49.546451296242878
H      51.041284807562818     50.701298114128136     49.395779005273845
H      50.661012941913576     49.040967327446204     49.463168214135798
H      50.297059420440263     49.522532747378222     49.393995737389602
H      48.949123749738121     49.764591119620000     49.298843992644535
H      50.039210664085310     50.886699488609374     50.443406819158533
H      51.403484888877415     49.933337770065577     49.789927168075835
H      51.690405017017397     49.594972946700715     50.415230953931918
H      51.103997711846596     50.111595694091847     50.498996359324167
H      51.180730742868853     50.722688350973407     48.898335039770728
H      51.512684381051862     50.386859479510456     50.797732328026314
H      51.822339618563916     49.308863580501928     50.883298002688370
H      49.854407515930681     51.440803328702607     49.977575174111699
H      50.802607161470689     50.596222920467852     48.593579351944982
H      49.659538571333592     51.087560712526056     51.041869375447888
H      50.108143301395096     50.548067655046381     48.665231791782595
H      51.361872169694841     48.914771106764078     49.442577119813194
H      51.538873058471481     48.670630452806734     50.872082067275883
H      50.904034227279794     49.299498382152954     48.045533420506501
H      52.186412805944300     48.419242234885559     50.613939809583414
H      50.711360897304033     50.149733362140338     51.049478712021482
H      51.445054826266031     48.284025994216762     51.168617367335642
H      50.604416327202813     50.840043094030861     50.467212288461020
H      49.718923277150303     48.456859504397109     50.686183213879090
H      49.520820543701163     49.037947931626618     49.093523002652816
H      50.687958537200913     51.293941853407070     48.364140785206388
H      50.068995662609503     50.913998015814961     51.571367660112692
H      49.531254905851284     49.043927535750939     51.031536978532138
