38
lj38_benchmark
H      50.000000000000000     50.000000000000000     50.000000000000000
H      49.552681105883366     50.458321241850619     49.546412645447589
H      49.321134625765211     50.838258738128687     48.937647354721371
H      48.649195152153041     50.501778673492041     49.184806117621271
H      48.736389752584088     50.545677808248549     48.498540052865756
H      48.238268277494164     50.131121722008537     48.741514493545552
H      49.180316797787640     49.918194490456870     48.446329135714194
H      48.129019758944345     50.472776081881356     49.387960205536849
H      49.603073798346827     51.390844305667208     48.718605003079048
H      49.797914904786012     51.130604281498179     48.171665886774520
H      48.231930011996134     50.265808232758715     50.124617425560253
H      47.479441436708917     50.388794121789310     49.290108453826413
H      47.272115592848799     49.956914918108076     49.147300557046172
H      49.439038455197903     51.638735564405152     48.153945233315632
H      50.338912590064567     50.598499941070870     49.481208841882996
H      47.338559590481033     50.982662725891423     49.205474950388634
H      50.185745803745270     50.533674694253421     48.853384323533732
H      49.874999700222077     49.977586888018180     49.398411862419096
H      50.071081926094905     49.536441833590040     49.695585594626344
H      48.888695562203786     50.142991289736493     49.442839754238825
H      49.219293088031442     49.569755562066483     49.550578769993052
H      47.551762783324669     50.146236948411186     48.636363152523309
H      48.196257459536497     49.842281279161149     50.468609719791743
H      48.706501275221463     51.549036500694434     48.118629880455671
H      49.835187602923803     48.901294866029581     50.010690747209999
H      50.203981962623800     50.792412501747762     50.241883387114946
H      49.640928075053480     50.726660613531088     47.619667773903963
H      48.882754850395415     49.227803294839624     50.051604760923667
H      48.028195242685577     49.457924194453824     50.012553720699266
H      47.815796943208518     49.935144915873593     48.048484099428798
H      48.125046233024030     49.603786315110646     47.757703240442076
H      50.622699302792441     49.040269202195063     49.642302340410119
H      50.846381774380234     50.797652819542890     48.685780526709237
H      49.149008493873723     51.059402401747796     48.524958179112069
H      49.041864770031133     49.296932230310802     48.530152016319690
H      47.793020609188432     49.808602155668915     47.240116400861268
H      47.260300310767079     49.404122928180833     48.854949854605692
H      47.235526473572740     49.684232593885206     48.297347192787790
