38
lj38_benchmark
H      50.000000000000000     50.000000000000000     50.000000000000000
H      49.578288051046151     50.053656432024432     50.293363559889407
H      49.665100755110288     49.899818318075660     51.058481775396487
H      49.998348661348402     50.574782303917175     51.018250376070320
H      49.625657487646897     49.854893097330226     51.757823579915410
H      49.894135801380010     49.661103356741116     49.643732004865456
H      50.566162153848623     50.401018674580804     50.712326692237703
H      49.271030540173875     49.409130306673646     51.119744742708576
H      50.562352009680545     49.442369993010672     50.098194968807405
H      50.420278419869895     50.211034256691725     49.644879910098645
H      51.030556949025843     50.441927657709158     49.647621825192061
H      49.245188918839069     50.817019096095308     50.908311682177384
H      50.706031487416269     50.246833831416041     49.027186057188445
H      49.100127927459098     50.114525076035136     50.804132791328833
H      49.070307670122872     49.563454630648948     51.731800044920647
H      49.583673367324444     48.914007446455003     51.613835284950198
H      51.291058525293430     49.317321434374556     50.258316201618960
H      48.807685703618858     49.081130524667913     50.558533720238316
H      51.388022795303144     50.104422054767298     49.408476368878802
H      51.632484656995828     50.614789395391995     49.205246521921737
H      50.350158877578011     51.158543130529800     50.633875583093477
H      49.060636973452610     50.625106484541647     51.579370556949968
H      49.908628312678587     48.961312886319369     49.866113553452749
H      50.030957488112350     49.358929703036964     50.150333117082162
H      51.105894231892670     51.011668356017495     50.596550560206481
H      50.291981896412238     50.442219315924795     50.246471649657316
H      52.052805023963316     49.821944519433494     49.054492813442607
H      51.172290893740154     50.684153985473785     51.282443631308141
H      50.798921027627408     51.016757828673072     51.278926778748726
H      52.712953231272643     49.620087114422873     48.762407552366454
H      50.587079438193093     51.604072535838839     51.507323309533156
H      51.473049270010840     50.484104528501042     50.123838321608453
H      51.782350066457482     50.779935686431827     51.596987406449827
H      48.444684101411340     50.835585427931214     51.501433208245743
H      49.767638063370917     50.593421560803527     50.251676433195613
H      51.649512551302969     51.370159677168637     49.342630479832970
H      51.669132081843820     49.201220817311565     48.797612042028256
H      48.425955701546762     51.232522919561582     51.889978575686342
