38
lj38_benchmark
H      50.000000000000000     50.000000000000000     50.000000000000000
H      49.596360798985188     49.919953480936940     50.678669075416515
H      50.612942898704688     49.755722492696535     50.102257352655080
H      50.091033409980611     49.244505342001361     50.271681396273642
H      49.753623207105854     50.109425746379230     51.169236728964080
H      49.882380444711302     49.258821420625807     50.961940688598339
H      49.567832533343179     50.493071526146949     50.454823394039913
H      49.932058197293060     51.092285083710145     50.804187729089627
H      49.284740388034486     49.494600744948620     51.354652421130702
H      50.473130421129035     51.382635076195932     51.246045369620269
H      50.795166012520284     51.953860807196534     51.565969610698829
H      50.490680126120445     49.516618642784145     49.460754655795498
H      50.162125477861238     50.448655522337376     51.063775918057516
H      50.594275358483067     49.217710684420609     49.891722268531318
H      50.360005748763115     50.071369418965958     50.696184741859724
H      50.107056161525811     48.729182476229852     50.688618195081943
H      50.658531059730748     49.192123534053756     50.710070316718792
H      49.993125138731429     51.712696973571894     50.301972925764218
H      50.448517245264583     51.374143485198502     50.055134621935416
H      51.014887555199486     50.904446856203585     51.554931996268586
H      50.196872617755659     51.991674681718671     50.713148143682879
H      51.015601861548120     51.257933593049366     52.222775820770025
H      50.283719832639029     48.178013906468003     50.773573859891592
H      49.856737453927906     48.843065299039573     51.595348456003379
H      49.611920079739647     52.010591623035033     51.132490980299472
H      51.179991114080686     49.845658820698908     50.057372413139589
H      50.846282506022817     51.314668708424378     50.692633407816508
H      50.196123461039306     50.707572462883689     50.538985209829050
H      50.856874100417109     51.027476060959565     52.953353533743794
H      49.171284877383499     50.250805369011971     50.125752080097456
H      51.124454755284987     50.239636932041037     50.600574867552375
H      50.680421259709703     50.409266835154121     52.614459052283621
H      49.548507440885338     51.663730402576554     49.857547266211625
H      50.195094713340701     49.965274152803019     49.295458704590331
H      49.260520212245424     49.833765134611404     51.915946156039098
H      48.792987586022129     49.394425714983988     50.949644046811258
H      49.762190803081637     51.050940994929881     51.439295044234164
H      49.740824195301620     49.465763239058617     49.695951144700309
