38
lj38_benchmark
H      50.000000000000000     50.000000000000000     50.000000000000000
H      49.589535191691127     50.019488182685578     49.514198236277295
H      49.503136467555940     49.497569954183923     49.825858706575254
H      50.227397478315432     50.517807427836424     50.401835188986531
H      49.479680680940788     50.020226756251830     48.915601002078596
H      49.555412051342195     50.600394544224756     50.142068761990267
H      50.280730624870358     51.078874551494863     50.231706275959446
H      50.136793877313472     50.071061687245837     51.019114904061247
H      48.851791382579044     49.836191347189647     48.885501406904744
H      48.831287273654858     49.791723840081708     49.567287716534324
H      50.166583782997442     49.837922306095415     49.138319234777178
H      49.760810960712888     50.283888848737682     50.769833370239077
H      49.717571580936514     50.118268217633620     48.193755316035855
H      49.520174420827864     49.491040582368072     47.795465125757737
H      49.081607258083103     50.290585866296880     48.643455167696146
H      50.046572473768649     50.772413252936225     50.859581348867941
H      50.881505059028299     49.830409705740635     50.867090624654388
H      49.172346247809507     49.960989523549827     48.027497284356109
H      49.006104977399133     50.668399245562725     49.831586474165555
H      49.103979041006106     50.985627534044490     50.663580807497674
H      50.531771249640272     49.214874424977296     49.240237663830612
H      49.254235200808608     48.934844245591243     47.340673927612443
H      49.871858290189486     50.523495208680117     49.034194852034425
H      49.189753736496186     49.521748322012044     49.241208714602145
H      49.636645336532382     51.043042368673326     48.914520174059682
H      48.375684801973065     49.580834467353142     50.022880866668189
H      49.520503417491284     49.096490644320177     48.818923863626893
H      49.509053283149271     51.183609732537747     50.203991713613426
H      50.217256947604035     51.182406917193099     49.655290133861328
H      50.955046988573926     48.848617242535703     48.785681776046985
H      50.761630955760417     50.691265295567604     50.967847734466503
H      50.913474756234038     48.310805052683371     49.226205286808884
H      47.941226722187480     49.244729220024375     50.254494168947446
H      49.533100882016107     51.640519442999953     48.430826657071691
H      49.367557125895601     49.716531223572964     50.440717842310981
H      49.167209369752953     51.650741926230289     50.317481941019118
H      48.685717352275823     48.576757403517959     47.478423808218189
H      51.350160608473338     48.349216680947535     48.313980455660257
