38
lj38_benchmark
H      50.000000000000000     50.000000000000000     50.000000000000000
H      50.229222674400127     49.273576100079801     49.962194024901542
H      50.192429801073914     50.306067949577979     49.642787091406966
H      49.721550378666009     50.196500185331665     49.001206213831516
H      50.291075035266346     49.301984499927983     50.611267113100062
H      50.384088191811500     50.518231314748100     48.927336660322901
H      49.818834325067634     50.603977845729624     50.483796223808618
H      50.151719916665989     50.547409751265114     51.129706803803259
H      50.723711588435648     50.219478010721922     51.570421675831568
H      49.182239333356982     50.120773815654424     49.586233510351114
H      50.022484394596439     50.675801942739248     48.243343255429750
H      49.580629532762543     50.880469890215402     48.855315305135910
H      50.689393210584676     49.455711815407682     49.664173763974837
H      49.583231228680887     49.492644461438907     49.087573202591201
H      49.248338006023587     49.874453478700261     48.583478250288614
H      50.945823440141297     50.502857603213862     48.761870873601296
H      48.899673113044798     50.441958009314881     48.767460133685319
H      50.200179850160524     49.934608377295973     48.325671720846273
H      49.533457724295246     50.094357645394204     50.939961995260880
H      51.557132263212097     50.651990839894246     48.977469551538597
H      52.255248911145493     50.549140723482388     49.284409849778442
H      49.058139818608680     51.200644094275205     49.343657749864036
H      49.823873880630423     48.952385393460112     48.862659378745434
H      52.729953538576936     50.183700335610411     48.868389284106939
H      49.085855715320292     49.022604140238769     49.193076276350766
H      48.571051035079186     48.638709012847983     49.495360297406904
H      52.313378332260655     49.779681689566246     49.260828777057768
H      50.116663757862391     48.954343133780256     49.481284341296316
H      50.696736671702020     48.936926537789816     50.769259069810637
H      52.369595060681505     50.879283112941721     48.571475925564052
H      52.071144673917480     49.595716081669941     48.695960126978896
H      48.802731228769211     48.100587833726379     49.246254744063300
H      49.154394503995967     49.119939700488615     48.537221479573518
H      51.258131397718195     48.912431686008212     50.852775512413487
H      49.031830055569785     47.631525494285377     49.181270052240500
H      53.255411135334882     50.137418347381399     49.446981184488450
H      49.504905902856812     51.054031479856562     48.055791949247322
H      48.731364590175204     50.463893655956745     49.361506783232386
