38
lj38_benchmark
H      50.000000000000000     50.000000000000000     50.000000000000000
H      49.858487237058405     50.517071979234579     50.174203571672699
H      50.637391427652588     50.175539475360473     50.028561963543446
H      49.469677815763198     50.368928641440021     50.585264993081068
H      49.687018233781785     50.776856515506260     50.997474588067625
H      48.992102012532058     50.347697298817955     50.082449754701329
H      49.624332196720673     50.785766768009722     49.646878487352666
H      49.126899042411623     50.949978749790603     51.232275971857703
H      49.301349070139850     50.088973881674406     49.723404023696943
H      49.859592250574813     49.919594107387546     49.198504881907297
H      49.100458485678296     51.132015259581443     51.926537977196865
H      51.372278268186001     50.338336318062808     50.062337654726967
H      49.869063929200593     49.340248078685264     50.066484442723628
H      49.520361078373874     49.364203724843023     49.233265660753418
H      49.582331433834881     51.105892194473000     52.363263832172322
H      51.262322003566005     50.169296148547183     50.801925261063808
H      49.637319539157566     50.572501065127334     51.795506395069566
H      49.573127451087601     50.917763153690224     49.152971002932276
H      51.515481358498349     50.876243541699338     50.360385309002901
H      51.925839832882886     51.113495672370448     50.791587893974082
H      49.003959785124472     50.884752044269518     49.083468340403165
H      49.364658985589465     51.750889713969912     51.505378953879443
H      49.256242201095937     50.812447099616236     52.746591499267325
H      49.702401386802102     49.080888977990774     48.532890346309870
H      49.205774152728225     49.960880257924124     52.067869501389843
H      49.806463185877398     50.569634209754426     53.224394960444066
H      48.787595929062817     50.197337586959314     48.907197348462901
H      51.502439377808855     50.580508040643551     51.272408077468747
H      48.967805121538042     49.632667918678813     51.656958611390408
H      51.342592193468633     51.553235462596888     50.400156787439315
H      49.686073003984241     51.361571190664108     51.107277400024017
H      49.159214866791899     49.384700964990522     48.202239966126761
H      48.826790569043510     48.948271823087481     51.645563597898509
H      49.236791424979643     50.836146063319568     53.297904333555962
H      52.198080111454928     50.596201936670482     51.398528239082310
H      49.128306720520818     49.966279161124746     48.208113375820687
H      50.435477309679840     50.794753176244541     51.134772668311349
H      51.591043017011152     49.599324625009920     49.857938134082644
