38
lj38_benchmark
H      50.000000000000000     50.000000000000000     50.000000000000000
H      50.389358542974136     49.370878641172524     49.797341091910532
H      50.052583017568594     49.046974844554008     50.100863847791871
H      50.502122159014192     48.802224237783442     50.445725767992677
H      50.523497395836152     49.514355282418407     50.261027045520343
H      50.349995444309371     50.389231093965627     49.653886380301536
H      50.501252131953798     50.112053499506708     50.742586311053302
H      49.551304530835822     50.288331113412312     50.127129088366104
H      50.070675892421789     49.102794443042129     50.661130616621314
H      49.318178434810001     48.768527556029028     50.074092166502830
H      49.421567721077707     48.445155695442480     50.480177561311066
H      49.621865731621291     49.267952217001898     51.078030868384467
H      50.240736804904671     50.825263283042730     49.133294517285890
H      50.675038437744711     50.515208035856993     49.183697241096183
H      49.566964894431514     48.928408722404491     49.469614651012257
H      50.561164251886133     51.542620527065765     49.067621999583224
H      50.984977311380995     49.687297169877596     49.916064898543496
H      50.276573381302335     50.142961083229402     48.833359843494875
H      50.173116833588509     52.201545811522351     49.109570777465656
H      48.760979599745440     48.922113535358044     50.267099918274262
H      48.728003704096139     49.348954992303959     50.819956629673904
H      50.210956731207247     49.306342358300945     51.388774318199637
H      49.473349135611038     48.423620500251559     49.257007487186208
H      47.966353862513238     49.210582083355561     50.745062062494448
H      50.007631463337376     50.277807034789070     50.742431235616564
H      49.580914005782773     49.530719600406520     50.618577373330169
H      50.339794901868729     51.541381313948257     48.552657064884350
H      47.721863091602181     49.693085488984643     50.222323595747433
H      48.339467664396487     49.199036290701507     50.330720290540995
H      47.978457760948359     49.229836851812202     49.614046503707556
H      49.577065674625402     50.662150645631918     49.722419183863821
H      47.398714838575131     49.263422849222316     50.155304788303987
H      51.223077881633024     48.934196762197246     49.773957775517864
H      49.728143744137903     51.044551003281683     48.653160953687667
H      51.320354506135743     50.347132908284408     49.824883718946005
H      51.797339505399613     50.053354202746874     49.814862009196460
H      47.421270248168724     49.096105524011683     51.021976446686601
H      49.177899085772303     51.230415958818355     49.967916778724586
