38
lj38_benchmark
H      50.000000000000000     50.000000000000000     50.000000000000000
H      49.582734738808753     50.217209252598252     49.565224478623065
H      48.976692858983576     50.392711093588439     49.795988615302029
H      48.614976071149307     50.854777558663699     49.447591453139538
H      49.672524814553213     50.529990601087185     49.995742348136744
H      50.130746938818170     50.163467440722364     49.069446829151268
H      48.325452713079812     51.422959581051657     49.742984549946343
H      48.988104902116781     51.349301682098229     49.582860297170427
H      49.373416550237096     51.298222625066039     49.898371179025716
H      49.664415067077279     50.326076551065007     50.750093584120648
H      49.701726535490316     49.537832310733805     49.486618956721308
H      49.488175520998389     48.956671574759127     49.321430368860192
H      48.024329447768643     51.386098893186229     50.428372433455358
H      49.410337621365223     48.654009228684977     50.033329559794147
H      49.122170021855723     51.968111019610376     49.318148119584187
H      48.313813109276737     52.085607784232138     49.854972071153313
H      49.730152208193559     50.436523882693557     48.673307758982084
H      49.520874689977759     49.838554379518335     48.821726750305032
H      47.670861607179233     52.089076937716108     50.444255080935172
H      50.302022150274389     49.756950565853039     48.579286981660957
H      49.140572221628219     52.634908158159249     49.379705764877066
H      49.491019418768246     49.762398459263075     50.062098931268636
H      49.085156070047177     49.103776715700576     50.084278392523949
H      50.431421641048914     49.693617534945759     50.313787104870421
H      50.684528967457119     50.292904494771001     49.194897858381665
H      51.338184080438637     50.691126326236855     49.199984681130786
H      50.479965504861504     50.373781338023250     48.449038431143450
H      51.024362168577461     49.807340645733447     49.780697321387500
H      49.092571531651842     49.989462378943159     50.632465703277632
H      48.458197688423006     50.861063295098326     48.666769053437413
H      48.070088896713472     51.135665891038975     48.247644625169421
H      48.481939169573394     49.095744336478219     50.183106514761754
H      50.552878591696690     50.757351983573116     47.817306654430240
H      49.312333983395817     53.179197736560447     49.091824145303960
H      51.837431109889536     50.326619900625282     49.567749820065991
H      51.836807653551617     50.810132161463365     48.621331250509151
H      50.026320331683870     50.747211695854567     49.143942051655436
H      47.817532386213578     52.172363615871909     49.862627448164865
