38
lj38_benchmark
H      50.000000000000000     50.000000000000000     50.000000000000000
H      50.451529498025842     50.172913819144263     49.769616174480838
H      50.938038484653831     50.008480741081314     49.477021257031851
H      49.909289897270092     50.274981542429160     50.571993826030095
H      49.339525416859601     50.046741500070311     50.224261606690455
H      49.099827511656798     49.640690058256169     50.021423337096408
H      50.057076738092526     49.972449495887730     51.292078235046510
H      51.168495750252937     50.550358055922338     49.537380896116119
H      48.895259741812801     49.054673518571775     50.397357216230759
H      49.480135536410351     48.922525320661471     50.726993111035995
H      49.695130706186646     50.463750780270800     49.920722129751894
H      50.298816826820143     49.791634053708052     49.240358798443872
H      50.150413539350794     50.765434459147158     50.150249023962999
H      50.651460376425646     50.218353685951364     50.802602109414806
H      51.579410969089331     50.862602975231589     49.199182299998320
H      51.572630048002850     51.405220297249905     49.580617425503775
H      48.275933460882200     48.821550741478298     50.129312601670200
H      47.899761564448092     48.377067579248887     50.232210311060385
H      49.428551137567574     48.668346658333213     51.268700419774603
H      50.056727543998491     49.719204858525480     50.416048183653693
H      51.043434486200859     51.184121173412748     48.945052702009690
H      47.153223390798566     48.641381748513091     50.264365872907661
H      49.688422223106691     50.592630297095184     51.374902600680080
H      47.424338239790252     48.844640244159329     50.842751212296520
H      50.555758156813404     49.942178146765329     48.753916133652652
H      49.857903569470068     50.572042023360801     49.304671351663167
H      47.596158175621284     48.237473235274813     51.247734598696077
H      52.095594862667426     50.901582750766877     49.222681685679653
H      50.773299178693541     50.846819857628034     50.198090002252101
H      47.208433554429703     48.012493754632963     51.027656272226736
H      46.627329550073647     48.473871799865535     49.917559125735153
H      48.053545488740376     47.769914201722926     50.478402219933479
H      47.805972941135458     48.788192710393822     49.858588355909475
H      51.090617012713651     49.619568806423622     50.508917830546970
H      47.439229175642339     48.345186673110256     49.475572410869411
H      49.321596750190999     51.062175969906008     50.041871840655467
H      50.887264691986481     51.584515670445199     49.689822801894813
H      48.225286984921560     47.159794565045694     50.515386469730068
