38
lj38_benchmark
H      50.000000000000000     50.000000000000000     50.000000000000000
H      50.541162512432116     49.805447882774772     50.339929431919245
H      50.068838662430153     49.936429648612737     50.925132225438709
H      49.586527005648207     50.456654525171977     50.482054014226527
H      49.323420474503351     50.443760519799255     50.925029454865260
H      48.875907561632111     50.363703266380242     51.481346029441141
H      50.641824389985551     49.878409401498864     49.554780645903890
H      48.961309169206274     50.199193023534100     52.050125283694143
H      48.458207654062186     50.540957385622811     52.200115659727125
H      49.696607077105327     50.245122765059875     52.151339658290233
H      51.125655041079355     50.295053029920410     49.750071645972056
H      50.348235155252539     50.422434079065390     50.570906357949255
H      50.466094076818990     49.643422189917594     49.139911384970297
H      48.909455732919284     50.066885790130492     50.890442914759319
H      48.718152675994240     49.387060621453386     51.208428153303331
H      48.819888937089928     50.820761641313808     50.982832538242640
H      48.849189794091188     50.279349100932663     50.273794385683367
H      48.975323731570796     51.031989753038850     51.585192638822946
H      50.507234979964075     50.959427961018626     50.883192471983605
H      49.770257716532356     49.563131647569300     52.364882156031285
H      50.617477008958843     49.885359480402883     48.579361641553362
H      50.948008334511997     50.366746309040344     48.241208336371237
H      50.188100710658667     50.067014421656630     48.795102906133749
H      49.914409543558769     50.541874816048235     51.394201073294475
H      48.394910440442111     51.361236887689351     51.171295841850181
H      50.501477014980630     51.577326840191660     50.492138649689089
H      49.709349437832948     50.472790776600370     49.138927563406895
H      49.041118769926577     48.902598563936571     51.650784809045490
H      49.568739679309203     51.098916251005654     48.950870321695660
H      48.054782199920389     50.697271306152501     51.723935616335481
H      48.079917528592674     50.706028209772171     52.783554097161058
H      50.122909836340114     49.818972101349871     48.306852340368906
H      47.839526529198118     51.055517796827374     51.042193243688608
H      48.636331260047442     48.504393309372766     51.271466960569626
H      51.148278656989028     49.423612613484870     49.389050293920249
H      51.775171245861706     49.928616283669164     49.523690678962389
H      49.304800847521577     50.073739596948457     51.505015532286187
H      49.662716528866596     49.051493064255212     52.771589141965350
