38
lj38_benchmark
H      50.000000000000000     50.000000000000000     50.000000000000000
H      49.943644346653123     50.356212633099254     49.454030876779669
H      50.278966202586439     50.572825969899647     50.424775744251804
H      49.632388367475599     50.818313285315298     50.148446149105716
H      49.575097730754912     49.903063790184632     49.034777305225617
H      50.502296602842343     49.585538533040285     49.751806763707421
H      49.121215638182790     49.589312959287703     49.476120598726538
H      49.753203994932306     49.495064305020833     49.892105170604296
H      49.761882243104125     51.563631006800748     50.407075491629001
H      49.335169537403353     49.572194327439192     48.535072887551607
H      51.136763699280230     49.381546993297398     50.187302283914576
H      49.670545460535465     48.840747395847892     49.883039248308393
H      51.447730127581153     48.853897774884963     50.466240431416793
H      51.358485520774629     48.297282226391019     50.781185870323903
H      51.142537516348149     49.311486605972263     49.659569855665914
H      49.143947955625094     50.365686650172982     48.594884272340231
H      51.739600307660766     48.694602434003656     50.926921449798108
H      50.749913185380038     51.057343420693670     50.544104318709671
H      49.467805203511674     50.715725315166857     48.444780407900453
H      50.400202191291477     51.806456978301583     50.412127057108634
H      50.049435659239940     48.243333668655140     49.599254482978502
H      50.758665298134183     48.754710427643708     49.901161641838634
H      51.357824193607250     48.791971224738873     49.231621154758656
H      49.365740854085360     48.975521369818892     48.924576377771892
H      50.461459708879680     49.280982057499706     50.334694532415256
H      50.146804819582691     50.589628770038395     48.131587449725650
H      51.145948379721951     50.966780092938208     49.849395070120472
H      49.989393510402785     48.501192175434277     49.129701021503060
H      50.745148409170028     48.524663050457782     48.795293990626618
H      50.107504939095897     51.443358800208529     49.970298234232935
H      51.403492926629106     47.633031229909193     51.108965621171016
H      49.566866098562713     49.340996919555643     49.450460584328816
H      49.485687400712393     50.495001919521350     49.609403010589375
H      49.877398511425881     49.998281216931900     47.987664954363609
H      51.617145944321429     48.242145114303824     49.208548240494814
H      49.507237397733938     51.095958535264010     49.102660861549943
H      49.758434080632391     48.992769269592443     48.613432890036826
H      51.012676479104869     51.500003846848742     49.560941696391772
