38
lj38_benchmark
H      50.000000000000000     50.000000000000000     50.000000000000000
H      49.942594260677723     49.802836974251981     50.531890286283108
H      50.585102595794062     49.446311871105550     50.312830258490663
H      50.304371278413697     50.498143983975723     50.432149674461698
H      50.493195050407429     50.655162307162030     49.853937591460351
H      50.104429196593408     51.283190118442214     50.088749284365093
H      49.467722963815724     50.315054985869594     50.841076417671900
H      51.203286161504039     50.535522630069252     49.594595407208750
H      50.158502500479429     49.529153791154634     49.633347750529687
H      50.609595057988884     49.708558368261315     50.875022298593095
H      51.558451725801405     50.711966314536404     49.197906616281408
H      49.466498247368115     49.655130221948070     50.346538778562838
H      50.861193255663316     49.193801060031589     51.098546883941601
H      50.066497996917604     51.669535784390106     49.559626558866228
H      49.987704839913647     52.190715961936490     49.116817201416531
H      49.418100913431466     49.980816294788013     49.676015821555580
H      50.802165303031416     49.225961632462329     51.640474301595233
H      51.474485344196978     49.820042636488196     49.602561328049802
H      50.628351558846333     51.559241704948704     49.702984367717931
H      49.603280592759546     50.841010066484429     50.387122166326080
H      49.294075872509701     50.620311553898077     49.974535397384720
H      49.691048136940339     51.690912743479544     48.665536380855045
H      50.224919332737343     51.766302339672031     48.701449470664585
H      50.871817697293139     49.502564340254338     49.320989167465967
H      50.543019390981840     50.139222842217251     50.139752035526364
H      51.047159076087475     48.759424509114368     51.406113511687252
H      48.786879199870967     50.964705293547453     49.867602432208386
H      50.540132530654020     49.080666919828083     49.261236906931195
H      50.606619123294323     49.579782258310736     52.072486226919736
H      50.696438859998274     51.905979484318863     49.301282619691847
H      49.848197140502116     49.155413037187202     50.060473601099062
H      49.604482511135188     52.046638446392400     49.705814047901995
H      51.649977027546015     48.427997545479364     51.819838531245068
H      50.908300829038239     49.911541086460204     52.504156437732924
H      49.190944667847972     51.753415859652065     50.269933551678783
H      49.742790679809559     48.492328941070539     49.801469744441384
H      50.233193762694661     49.782266087875115     51.756575335000889
H      51.005176610938300     50.340515704969278     50.573098671210388
