38
lj38_benchmark
H      50.000000000000000     50.000000000000000     50.000000000000000
H      50.720556758016748     49.913723859133917     49.687512909418913
H      49.540475441628267     50.565873013359116     50.321153951746524
H      49.327156936021787     50.067549744191830     49.726329982045186
H      50.091286022845132     50.515021213026799     49.426059389100502
H      50.402047207123779     50.338469620098657     48.819721999560585
H      49.901956234019700     50.100632242430109     48.349924413635058
H      50.667349640246059     49.765407336536605     48.445397490376159
H      51.218326946108846     49.952533037453883     50.155089159539536
H      50.015942892659695     49.749357300735646     49.061530849510113
H      50.387422649887718     49.151099157533871     48.494945621454697
H      49.662487267155214     51.205837392368430     50.092488326334681
H      50.484583003215064     50.449775808057069     47.986540419479880
H      49.479658573825589     50.041818686705099     47.887289200467237
H      49.649259016917313     51.557242997161183     50.608973339933485
H      50.833482429396760     50.262863482289582     48.541373252401826
H      49.128734618228947     50.346613947940945     48.479610227698650
H      50.981627557090420     48.888439895485909     48.340730960233564
H      49.887855717239255     51.066175454436440     49.204113151973985
H      49.159040184854675     51.485961059353748     50.569749288565077
H      48.913432459455400     49.653850389626562     47.584300836098933
H      51.299980097600560     49.697357274726848     49.317916680140343
H      49.578293967205319     49.950200020925479     47.113561079163631
H      51.087801499447863     49.281158875051005     49.091113814306759
H      51.305751302924918     49.752445245937658     48.821027902556622
H      48.393326000850429     49.383539039508996     47.618706127056058
H      50.262509558525160     51.538654277194020     48.766671929742884
H      48.711660035603622     51.270042327308047     51.153987295133831
H      49.368874414781338     50.848724063131492     51.308661741332500
H      50.560258472661793     49.300389238758441     49.607974809924137
H      48.037135814278486     51.445270174445014     51.027285591906043
H      49.851895541161390     50.538139994528620     51.158305329125739
H      49.340778100225663     51.310592067293790     48.842343224438594
H      49.235191596055493     51.805326930295450     51.317716334838856
H      49.430013445416087     51.439764550806778     48.075876401321615
H      49.301492960364463     49.751866738013256     49.266386326196447
H      49.046638416490566     50.326682311511618     46.845982786049028
H      51.611267886074849     49.090778732034082     49.463997193252851
