38
lj38_benchmark
H      50.000000000000000     50.000000000000000     50.000000000000000
H      49.691721325903231     49.514797352522997     50.546732960104542
H      49.855980656305313     50.291964885202788     49.472985729369938
H      50.043466936919017     50.402046603966383     50.664046125998077
H      50.576826140848631     50.808454726433872     50.909859174468785
H      49.534622790889415     50.714590293855686     49.230322758836721
H      51.010284034753155     50.563335690194485     50.326149422925241
H      49.997239491742292     50.234121631437652     51.325344559066885
H      50.160335355033034     50.605036420517486     48.827512048529044
H      50.282561908392523     49.419730406879047     50.507429311057848
H      48.949568890566368     50.575580208093974     49.447791163198161
H      49.406676937235297     49.571960760553765     50.083462444921395
H      50.385173694790396     50.030139237653231     50.502945768836327
H      48.899835246076115     49.498295486444412     50.302813340884754
H      48.500024571061715     50.419798736199965     49.855076014677039
H      49.136923580335925     50.083106950522961     49.349880327269965
H      51.054954927740063     51.156092717653380     49.858630954406081
H      49.551626752231392     49.519612462150413     49.015055361706999
H      48.420444755222292     49.669728503541563     50.842791352903490
H      49.399732158175013     50.788206863255539     50.678486392464933
H      49.034395777495490     50.269122184578421     50.143475994155942
H      49.807255195084338     49.338526189045339     51.118989828265121
H      47.816836824760024     50.622750632302981     50.118646765294628
H      50.517797761214510     50.939873340749941     51.646143092920155
H      48.194114476844852     50.502062954116880     49.390467428017104
H      48.161027516634462     51.135866131384930     48.977066124799677
H      47.876166477959607     49.922716658494288     49.617978740483871
H      48.659432076316904     49.666959540698805     49.877070122652277
H      50.364685924575028     49.868894740401259     49.052403202491902
H      50.947658889854445     49.421143102182029     48.874035622023541
H      47.819488392952721     50.848407852659804     49.202908861879799
H      49.574877373462805     50.516697670144175     51.137382299176991
H      48.067809040236696     49.492545270220290     49.973426789584650
H      50.762417467645250     49.777351071934334     50.172420002669540
H      50.246349356595601     50.302976112848789     52.020169954500858
H      50.340923068753810     49.719082461893343     51.081631623385249
H      48.956427935169920     49.170339390463340     51.122766307249933
H      49.280065029447933     48.621752848240448     50.833213707677068
