38
lj38_benchmark
H      50.000000000000000     50.000000000000000     50.000000000000000
H      50.395453566300183     50.348676998591031     49.910603073602040
H      50.477666349113314     50.979788670036100     49.885967024033015
H      51.062396190757028     50.250540120011443     50.318808604640793
H      49.329855567932782     50.146164834965845     49.939216249995127
H      49.874568846888344     50.847227517317407     49.623588767558530
H      49.233376283661279     50.934206106651359     49.905782107825104
H      50.317850141329444     49.564084206929444     50.396352477997063
H      50.434984083300847     50.483401111313498     49.125374734090173
H      50.655029696902233     49.957648531160864     49.096209579639584
H      50.425235568988761     50.180672280244238     50.457556206476553
H      48.877983146654799     49.655705368646437     49.971574771886203
H      49.119300989727705     49.207841561297251     50.127001792290741
H      51.227073568707787     50.132494473639895     49.820965746064140
H      49.829762236888740     50.636534344574045     50.600887219979569
H      50.676899502544110     50.194121351433040     50.894567358043147
H      48.586008324230818     50.957321725030361     49.770850148988984
H      50.489192899178356     51.615335732471102     49.940367334623964
H      50.728286468914028     49.815543932810741     49.690842460177350
H      50.143041681322977     49.008411127217023     50.119792414393764
H      49.070088922389367     48.479972622228857     50.458349586865182
H      50.514119186627212     50.573427091578161     51.575610600434274
H      49.085357533421686     48.338963119075757     49.796347886517140
H      50.627266230092985     50.771245933106258     50.920522457160750
H      49.623474480267973     51.067244731534792     50.455607262442321
H      48.767064520818494     50.473518241886133     49.891886524691557
H      49.137500198033514     49.565044384037847     50.629102804714485
H      49.465976860543492     48.790681857462580     49.916004613654628
H      49.024050203957145     50.245777514396636     49.308348424875639
H      51.906174170367059     49.940779276422823     49.898393004311423
H      48.950136224366766     51.171992886026260     50.355672892842009
H      49.696230467744662     50.670897343609290     48.956781561597133
H      52.346900837513630     50.377721900791293     50.130082430666974
H      50.694501389031373     48.646872370830238     50.564274785081388
H      50.436406335797173     48.070661206538446     50.940215766830491
H      48.538457383324861     48.852134483024678     50.063680667141796
H      50.281926588763874     47.808573143771838     50.230759199965298
H      50.117618922015538     48.433615828603607     51.382708132121522
