38
lj38_benchmark
H      50.000000000000000     50.000000000000000     50.000000000000000
H      49.743619582549385     50.141885894819566     50.549851186487949
H      49.591759721467554     50.849828654258054     50.890498037594469
H      50.258967541899089     49.992106182383196     49.535768383447085
H      49.581370954533782     49.691856215236960     50.365283829214924
H      50.391123241893581     50.062787163664211     49.021718120317153
H      50.210874822467858     51.020530024836241     51.268432799684000
H      50.134932093581995     49.278392583566749     50.528541682948230
H      50.207461851806400     49.652869322573324     48.576091801309424
H      49.389087571320474     51.013347633826648     50.226737680965549
H      50.112586053047330     51.231720802961469     50.211985757039898
H      50.458728691483607     49.210793260764497     48.153281339319861
H      50.174121707778717     50.899325322675018     51.943013673702787
H      51.000042020678876     49.088597218457096     48.033796167206397
H      50.374832495671249     51.713122261930351     50.692027522757385
H      50.594159195607546     48.686007188729263     50.345691088067106
H      50.892156629845715     50.462649825319289     48.956317722219218
H      51.551545344106778     50.665842414104930     48.657154937036374
H      51.163689661751562     50.730323500747097     48.071439783146644
H      49.740829005230992     49.520593905465581     48.753834966974729
H      51.465285574547622     51.207333115648147     48.965526121928647
H      50.581480235436111     51.226743591189297     49.777893589532106
H      50.647393817965295     49.552963190420719     50.647609744691678
H      51.829018383009071     50.257906542422774     48.178196868138443
H      50.881385246352565     51.151960249633397     50.760088362857985
H      50.645668467983526     50.789187719399607     51.712766635839550
H      48.908209741047393     50.463624399937302     50.724663529682410
H      50.543768426521176     50.611597371388577     50.475114868986395
H      50.834338861487666     49.742414034566735     47.790640189093097
H      50.562699821793011     48.498717224791434     47.751624381635537
H      48.896931070173579     50.998581997957650     49.639598572187047
H      49.609114060128121     50.064366563027747     48.988502393082911
H      52.062025682886144     50.687624129628318     49.175607291788239
H      50.246554392751975     52.016052405555982     50.263959213420215
H      50.914790351898162     50.696571192525802     49.759917798237382
H      50.032497999840857     50.342075180026541     51.108571758179053
H      50.736819510242483     48.073907394476073     47.496485925212021
H      48.356208227617230     50.085862003483641     50.677147370220780
