38
lj38_benchmark
H      50.000000000000000     50.000000000000000     50.000000000000000
H      49.632942655812094     50.393054783918615     50.228991700146793
H      50.372425566652524     49.680631034394878     50.287642369731763
H      49.778950578402338     50.283682270971958     50.904559765679316
H      50.601543219262680     49.175845467818284     50.418290265615873
H      50.556493941581486     49.590087815591133     49.564318641098552
H      50.992288540103196     50.021582980198247     49.384636541956873
H      51.152728661209011     50.290526694564029     48.752310292469311
H      49.493841874407821     51.138139303936498     50.182145236403358
H      49.112764787686920     50.394896823595062     49.818279716441296
H      49.773156314382440     50.232668358618930     49.560459659463156
H      50.422251335700032     50.342729175546310     48.453772813257885
H      49.600436649892991     49.399099056217253     49.723321432141830
H      50.609061958209118     49.251749829506856     51.195859212468420
H      49.562873611121688     50.706848542276035     51.516175457627348
H      50.825476959984371     50.876102255236638     48.930086420460881
H      49.654676035222657     50.610677676866118     51.998597198715544
H      51.109043654933814     50.552274473195759     49.510571072967757
H      50.075438919553228     49.132352222567569     49.776851457174175
H      51.162155459243607     48.716491472487220     50.487065929061970
H      51.210778975688882     50.710369141077777     50.217436387726011
H      50.718242145450247     51.138662922002908     48.496770257286030
H      51.027578971328353     48.029352778483691     50.666683419242474
H      51.127493516605085     51.198992713915707     50.501961827694686
H      51.578915779870954     50.333898736210394     48.296306703313000
H      49.356013957990193     50.855305934730886     49.248818286797857
H      51.070793779304346     48.609293563539545     49.819766070504713
H      48.980007339573113     49.960577675494029     49.201297352742166
H      50.875002778645289     51.436330124152441     51.180694590138877
H      49.514688046342108     51.528479475920129     50.616838010655904
H      49.978252561091033     50.693525738357415     48.442960725105365
H      49.396266361180189     48.857593587995353     50.048154786888055
H      50.325936494786120     51.190634503584931     50.918179686788370
H      50.563328620807141     51.197195864845796     49.468978606768999
H      49.340523398944789     49.800476883725672     50.751857886121805
H      49.926742657491097     51.667795335744323     49.802518651371308
H      50.994402796093325     49.476113230624343     50.142142950768864
H      50.011994408331930     50.808562272038493     50.199998703528358
