38
lj38_benchmark
H      50.000000000000000     50.000000000000000     50.000000000000000
H      49.608612524835486     49.594662518653415     49.473496406809311
H      49.327320586266602     50.040239267200832     49.281279675349133
H      49.218831064767159     49.698345129840789     48.756443057870946
H      49.664639200053543     49.991067466707399     50.412699669325924
H      49.727155502100338     48.866629855053702     49.613518572240295
H      49.801286070360426     49.265112025191158     48.990543951430389
H      50.323580252045240     48.542096320723537     49.215897592574706
H      50.419987821559559     49.474359873574919     48.645122238100882
H      50.258705465474264     49.048134596656880     49.570130823435143
H      49.007581001441864     49.872966572755125     49.899576293463561
H      49.906921923441807     49.386723029671764     49.867589427358389
H      50.382792983812145     47.971107481824340     49.204799333395414
H      48.362642610346448     49.863681457665187     49.644454622827944
H      51.114778613209872     47.717958624955266     49.109170984098306
H      47.950031685039981     49.269347733490179     49.309467105439751
H      49.006004090638207     48.965686867358123     48.526723814445333
H      50.325182046443572     48.977854961221375     48.660485408884192
H      49.804007482009339     48.636872110149767     48.551961404269740
H      48.936896958847385     48.417082231981787     49.078951691629065
H      49.023350869853182     49.058698787947819     49.585139200422056
H      48.730131746050915     49.543891766781471     48.404340212053860
H      47.298485272605390     49.285032240573692     49.049034355135475
H      48.582400697306760     50.330213298616016     49.202197871878383
H      47.632045956331282     49.170939165484000     49.910617805769874
H      49.098209462480696     49.130618302559007     47.991853714397379
H      48.144091433289496     49.405854213432569     48.818789880450993
H      50.888417214849653     48.507803058926655     49.424629279287601
H      48.676485457558790     50.853058877532312     49.535221669575435
H      50.654911558481011     49.821705181126731     49.221149676129848
H      51.177168893124943     47.013533891959881     49.401461797155996
H      51.148933830310547     47.199892676843511     50.156787697123129
H      49.838484779159756     50.010336026685600     49.185362145392162
H      51.363359842620774     47.930418409135747     49.984363894260760
H      49.942036586966530     50.162344758787938     50.918023629135917
H      49.501418739670157     49.114059396726859     50.120939962372539
H      48.347534198752989     48.261720616066519     48.554413007781413
H      51.071062376051167     49.244540451523264     48.667914579017662
