38
lj38_benchmark
H      50.000000000000000     50.000000000000000     50.000000000000000
H      49.583264871525458     50.510667027933884     49.923551826148937
H      50.690350718640367     49.976996339982740     50.159913962118495
H      49.277127744334429     50.534809472660825     49.346326807306980
H      49.702734982089275     50.407976903430445     50.443553403274834
H      51.266117051044773     49.975535088170858     50.184785982414901
H      49.665741108084688     51.065632553382898     50.814138150092347
H      49.425540816682009     50.781411355865473     48.709646573010758
H      49.985694952621671     50.703694800910121     48.567307950424208
H      50.105025705138729     51.278753397174093     51.428302290328581
H      49.561962235072919     49.848960222754087     49.739558273219451
H      49.283400521369380     51.102174021394944     48.059462180879201
H      49.130676824863237     50.604431362180833     47.585895419390305
H      49.081713489397636     50.813186054516343     51.117373069937734
H      49.918533189925625     50.299788931555767     49.193220378631366
H      50.615906295414788     51.681378427257037     51.521167944036172
H      48.529428861402330     51.239462737171742     50.814112586108656
H      49.562847357204134     51.373588152237843     48.402302176783969
H      50.490987948577903     49.242936799648263     50.093097281412234
H      50.419954059030985     50.471438812677590     50.176454688498382
H      50.206031032975474     50.654885671188246     47.917572528512714
H      49.341883625175569     50.492449188337901     46.822971474282518
H      50.752750909725442     50.229207837603795     47.707845604945760
H      48.430644004955731     51.195581183309486     51.472925445111414
H      51.033418079177963     51.116309496521119     51.233972409665007
H      50.663269331827600     50.761594521016391     51.045757080080811
H      48.808165537138088     50.612385232539651     49.731126148756132
H      50.190471705030518     52.116870157835272     51.474919604555957
H      49.728341997100422     52.616126064046497     51.427582028523837
H      50.093242797168138     51.570531491275204     47.951301921080713
H      50.191468537925978     51.176051228964312     49.871303988413494
H      50.747449939642593     50.599701103296155     48.335565821169993
H      49.030404426098350     49.788862723438839     49.786182304108053
H      50.466919881728487     50.421546139740450     49.466868629906152
H      50.651915231513122     51.130757809905461     47.738097113048838
H      48.763169516753784     49.348505325950448     50.401320529732374
H      47.823439710770899     51.074593568905719     51.901685106210451
H      47.873304792539734     50.890582401653390     52.499919432773012
