38
lj38_benchmark
H      50.000000000000000     50.000000000000000     50.000000000000000
H      49.332444071570364     49.936633610252507     49.726838955950740
H      49.125976770721024     50.529705297054846     49.872497845533545
H      48.735098148563374     50.665795944317289     50.339911864438839
H      49.060451253437051     49.998466729267953     50.319059412151020
H      49.110778391801141     49.578646527477147     49.363219702619915
H      48.994372114232178     51.154385679172456     49.626069943249377
H      48.984135722033990     49.351174386642377     48.799910969260196
H      49.110196939062760     49.870863794805679     50.943719914633427
H      49.485344059727005     48.925465279564222     49.561866385436211
H      49.075860559638841     49.673537440337533     48.363696515481791
H      50.142175430321068     48.828286703075598     49.976806416342690
H      49.175935160840595     49.093926492477522     50.248731031070946
H      48.487291623036036     49.690769970784999     48.347780683092921
H      48.820268571831143     51.544928360026418     50.047997781997530
H      49.578852135053189     49.159776886550816     49.090145551934420
H      49.399427692944769     48.666106675814476     50.885508487163392
H      48.424810176354740     49.822634592948091     50.467974868255027
H      49.005130347751745     50.048564536220574     47.714835975886785
H      48.288854411700939     49.363301195609495     50.891114372197798
H      49.107156216530328     49.232875189906082     50.943895574092323
H      48.807990746112885     49.237837638466786     47.776157734663045
H      48.601998804938518     49.305477891072606     51.352299307732046
H      50.162873956888738     48.114760634793711     50.319004399564598
H      48.591084348551540     48.637241072519537     51.576570919060785
H      48.848614225801349     50.395439334980416     48.444426078006927
H      49.092552082237155     52.062043868168665     50.373485878121365
H      48.260131885598526     50.056054817053671     51.235561354498280
H      49.363436511618488     50.568272549712781     48.245879576198043
H      49.091747205896695     51.583646452768477     50.971118730757517
H      50.086485107239938     50.271990631228036     48.244548514884841
H      49.515511118439143     49.949419178156170     48.688837297405549
H      48.638639829889584     50.638507206668194     51.462529751708182
H      48.779473498224853     48.898472266952425     50.711344651851228
H      48.344539670994358     49.789796253936224     49.856307383451700
H      48.734188544619506     48.618589151609612     47.596804116325053
H      50.367206283993490     48.633992351865842     49.461233141963270
H      50.964435478091353     48.869851592099550     49.404767037371641
