38
lj38_benchmark
H      50.000000000000000     50.000000000000000     50.000000000000000
H      50.320773254433945     49.405180713878501     50.035320724379865
H      49.720300792290068     50.455707499905827     50.484644041458075
H      50.398257283055798     50.410099369066280     49.752879781832277
H      50.930568932636362     49.821492416056792     50.286250983780867
H      50.095075454155783     50.240922034919386     49.228511423030788
H      50.745773847871249     50.062802866427212     48.899241664292681
H      49.900245400797942     50.338172988046068     51.027959638552268
H      50.244642391355235     50.220834960238172     51.714610121953825
H      50.842127858263318     49.768735390922821     51.529945390295730
H      51.190837172480258     49.461388095419672     49.080834253642976
H      49.714029837130383     49.627086229319907     51.295296442497218
H      50.082498788110037     51.070939349393235     49.676561232825470
H      49.952326437064585     50.417667554234015     52.157196607981604
H      49.430352653899298     49.914526554044869     51.968471414606249
H      50.607825858968226     50.489764832722429     48.678466541418118
H      50.531377189972652     51.145049265707840     49.342418326870408
H      50.597298779836485     49.982585827989951     52.059930314847961
H      51.190580000253952     50.009260267992993     52.498418849474987
H      49.469137809831224     49.100472820986049     50.862067213738520
H      49.145479865403679     49.750570713297037     51.050146099160649
H      51.623432385646339     49.297674600954991     49.372891452048833
H      51.405981107384733     49.965555323256680     48.608822644378414
H      49.367030890502008     50.046081626679573     49.962677698418162
H      50.881547374092939     50.288148032389536     50.018474245856730
H      51.130417357602951     51.031837974964283     48.843023277137284
H      51.151679905963121     50.304893198384320     50.437254667685330
H      50.244173108841558     49.388869605321695     50.599273560692410
H      49.700258440759967     49.192681886469330     50.321529906294678
H      49.777067257927889     49.854196336273837     52.575271974180197
H      49.933404693841624     49.812350850608190     50.689036058746979
H      51.198345189609377     50.130894779270491     51.202129692622172
H      50.837365866435341     51.736229760648726     49.578636257253002
H      48.963270180155888     50.632019352800029     49.720672690432885
H      49.260630753792711     49.218469802939346     49.881414915720249
H      51.695743489549905     50.026268966851390     48.047393379803474
H      50.931183894122377     49.639854589155576     48.159198479012325
H      51.649167940055477     49.952109954557613     51.395050571511831
