38
lj38_benchmark
H      50.000000000000000     50.000000000000000     50.000000000000000
H      49.786861316708823     50.649823140704655     50.325308885998957
H      50.369828947702374     50.871010876396632     49.950336089659196
H      50.572068968681556     49.886178748241342     50.108223922569550
H      50.523528496618837     50.761853024157880     49.427078664123492
H      50.807601584466902     51.393293813824442     50.341581496290061
H      50.452948238239053     49.223484364192721     50.016026607642317
H      49.418183007569127     49.694534948433329     49.632153913482377
H      50.664820513801445     51.957912911272274     50.631332475437432
H      50.613066362582330     50.957851588653384     48.839617885672702
H      50.995983422401693     51.003764496664807     50.738063663141638
H      51.524566408187347     50.767669501602079     50.936549391414793
H      50.348311965674789     50.738173457371950     50.916296557314261
H      51.841352471292915     50.147424485832488     51.121020295198413
H      50.289708534648931     52.211440137496830     50.086142765044478
H      50.093964177641787     52.739055594353658     49.796051383668448
H      50.142734497758745     48.965651982902614     49.590570107328929
H      50.455242073100642     51.146399498590242     51.419997958633104
H      49.870870691529142     50.949758760028089     51.092020853405522
H      49.572891375907517     53.016610227907890     49.357443346111147
H      50.441252462876093     48.686644835391320     50.301546615429430
H      49.368827123267145     49.263870351494162     50.192060446792908
H      49.710102288503549     52.917118906423561     50.059431979935823
H      48.925235337656723     52.762158134979828     49.320936597858413
H      50.445397525496439     53.265617349430727     50.242121033066688
H      49.713931810875586     49.255783311278314     49.109316184166232
H      50.739625815201180     51.606863733416112     49.808922938500267
H      49.342669359018089     48.997134558062768     49.415600220037831
H      49.637131567358026     52.127587290440346     49.622034678489051
H      51.721486298523011     49.789704254614776     50.517333720686587
H      50.099766562050355     48.187638124396571     49.685093148488683
H      49.263260818361687     52.580427486905954     50.211620454575772
H      50.181496209785500     52.151490149438743     50.587734940964246
H      49.556006096915240     50.509484580812611     49.789647158206535
H      51.146628339237189     50.470859257423015     51.436847657453143
H      50.113795976522866     51.581898683520620     49.276399967201556
H      50.869340434685327     50.298643937426249     51.052976366338875
H      48.332045183693637     52.626855632412187     49.332097111227611
