38
lj38_benchmark
H      50.000000000000000     50.000000000000000     50.000000000000000
H      50.047319377387865     49.984963210851511     50.803129704873754
H      49.587345718903926     50.174573638634257     51.102197164766800
H      49.534757161401103     49.974216852934262     49.697960822355839
H      49.066553044758074     49.616861198949032     51.148536973631749
H      49.943610267825221     50.015342204176321     51.730423863177990
H      50.363084167575849     49.554722175143397     51.420448127312113
H      49.983510642370916     50.363013877846292     49.525152062811998
H      50.552608607589924     49.518124186050827     50.545052521448390
H      50.377571424730903     49.596616778438950     49.557191256091656
H      49.439864614929228     50.077307850961162     50.478584504179111
H      49.840363538703620     50.687639294059259     51.766627829575306
H      49.694926986693829     51.064931925188624     52.074166685974618
H      51.090004601297018     49.997231387517282     50.261779227332767
H      51.236825725326952     49.503632903790695     50.255449432670780
H      50.393503701743171     50.287208269344632     52.118234731976848
H      49.163895809153111     50.559847371679901     49.368289196730544
H      49.607535658065885     49.335393563004438     50.289669931479679
H      51.336144767561997     50.613487283971629     50.554057029806977
H      51.952254945246189     49.558309053060754     50.324997336936597
H      49.615458727754884     50.902031888159307     49.067279845677106
H      52.279981934617695     49.965144679056976     50.425713309925257
H      53.046539355331348     49.884203784477343     50.356457308218296
H      49.769820229093895     50.537210310798365     48.549209852126310
H      50.158108806677419     50.955184030011992     49.221867039623561
H      49.198392151446981     49.923867097140942     49.103879982370955
H      49.964792326747968     49.421355336170862     49.926989503179549
H      49.583057975659919     50.174167583013002     48.111032077419267
H      48.712108590010629     49.153075129226231     51.112239991701017
H      50.752764699181427     50.337493395142552     49.582260970899434
H      52.032732190996335     50.069963323703632     51.079023002455997
H      50.482340664993664     50.339072463992629     48.748618880928063
H      49.732733190443831     48.782121662875340     50.466975281171408
H      49.467379622865636     48.971852187291248     51.166003413216835
H      48.383364662267972     49.336856684435070     50.562861277566014
H      49.842106081938169     49.680649247352214     49.432412516467515
H      52.611939801107098     49.839197804287238     51.041385746783263
H      50.489376545904591     51.529473875530826     49.535956788805080
