38
lj38_benchmark
H      50.000000000000000     50.000000000000000     50.000000000000000
H      49.610387630434374     49.960224030685467     49.392443301863885
H      49.655291265560329     50.148387374204731     50.573631622272053
H      49.253415887963889     50.250259975722543     50.211433527545772
H      50.062579813066066     50.446191087928092     51.108398839437243
H      49.941681446306276     49.525097447359542     50.969713292111464
H      50.451729841493453     50.572809582391763     51.611266775110217
H      50.437962986193362     49.781390821852931     50.132223741684719
H      50.192928039817225     51.084460308296791     52.147554278267393
H      50.598947274279560     51.102338004503899     51.212267860719045
H      48.910488805652250     50.245754559002307     49.148729419981862
H      48.759265554011655     50.546743970113056     50.447244863701428
H      50.219653807280217     50.568940376591527     50.395467249117651
H      49.018010270469951     49.749597646814728     50.683123757366658
H      50.405896117027865     49.212845352439857     49.936092063287290
H      50.830908810951804     49.758718561540945     49.522005534555845
H      50.594214926276393     51.551217423039553     50.913362158316751
H      50.033013534806329     51.511550926166343     51.351973071144755
H      50.210037355871158     49.741847858007397     49.133554907502017
H      49.265191079065467     50.697910022928248     49.633676059616143
H      50.175586590351784     49.443565178376403     48.733829633530959
H      49.099673558368359     50.170468885847697     51.053242563541161
H      48.596482474931051     51.147451435104806     50.372315338465889
H      50.996916446688196     49.507918015055196     48.923048937096155
H      50.089298119196521     50.593793890848445     49.779940108740654
H      49.820494283102121     50.240111990789387     51.932629036077650
H      50.537613660843220     50.968356481428629     49.715927948563760
H      50.920264199649388     51.374650230308404     51.497496263002354
H      50.425039678587261     52.090429854550443     51.567528224795872
H      49.586931509897468     50.732626013370286     51.903888005349515
H      51.274874048009771     50.892096680735520     49.597741166601793
H      49.773543226622486     51.034772029599949     52.751595765637589
H      50.324690190682482     51.211936450551029     50.574299983121321
H      50.303143289092297     49.271833905983620     51.390402913792286
H      50.387026416563337     51.975681965372388     52.349473344305622
H      50.698908348604249     50.537524745308588     51.082651689778018
H      48.141161208910070     50.643665938140188     50.192985954026383
H      48.448008258603494     50.020303017319307     49.443971513190100
