38
lj38_benchmark
H      50.000000000000000     50.000000000000000     50.000000000000000
H      50.317226540220808     49.958969056611501     49.468553370803605
H      49.825596386522363     50.359902218427699     50.596141661802662
H      49.254755725289073     50.604313477393461     50.498106377107483
H      48.981735117894424     50.353605028554732     50.106852805413624
H      49.604657968940892     51.035325272294280     50.042408619708745
H      50.415930755821776     49.629229997785160     48.886623495370472
H      50.241627898194700     50.627494913813109     49.279274627074258
H      49.947977727973701     49.683696736814518     49.234795752675495
H      49.415819240930361     49.141416104003802     49.194851306424383
H      50.095039173117065     51.201168799683160     49.534235949535017
H      49.363434206012094     50.059277142873533     48.881078957539984
H      49.844384217691598     49.366331648997651     49.680357295415817
H      50.382276552544930     50.459734279540896     50.722639589397915
H      49.467108177580378     49.814686509782284     50.043452126200485
H      48.443830836040974     50.476709364978618     49.861043514995167
H      49.951292285562886     50.418665236312115     49.692133086045708
H      50.749152619567518     49.178478262933737     49.013614459645346
H      48.790240488815641     50.721332223122033     50.874004427315896
H      50.346242645266479     50.281062338110893     48.883355377087213
H      50.976601041987195     50.014372151496033     49.133818006242436
H      47.719015284735221     50.517539259916816     49.668741599077137
H      48.290899794596335     49.861222783167740     49.540073384089155
H      49.303266866715219     50.964853510670885     49.427510752413284
H      48.977878148053868     51.443115830000210     50.278579723034049
H      48.556026441284175     49.357336309203930     49.534701410289514
H      50.284711764637983     50.709527486627699     51.198225912213431
H      50.916469150187275     50.607816577558538     48.474550577146630
H      47.915117034365721     49.676892243609991     50.029393301997700
H      48.976555709532668     50.475227222983918     48.471960305614409
H      49.400095377518831     50.722579694754565     48.143933161842362
H      49.427484936984825     48.757621387990220     49.603793689433608
H      47.387276743608929     49.881605845833178     50.175763503644248
H      51.001479763284607     50.867222194403055     51.205329339530934
H      49.630994547165898     48.853137789784604     50.236364807889984
H      48.836157822953311     50.455841160013414     51.457816459862350
H      49.330466219257943     50.243193541595367     49.657646964636811
H      49.651949598453903     48.171977376252435     49.327014952648256
