38
lj38_benchmark
H      50.000000000000000     50.000000000000000     50.000000000000000
H      49.773413797784059     50.368986793868935     49.698288497945228
H      50.265377149053982     50.484979019093743     49.338396584256849
H      50.460596506650496     50.924014061886915     49.166724921237275
H      50.704663222502624     51.096766247761146     48.578404709840363
H      49.642892020305553     51.138714042763119     49.581289842339480
H      50.159482517741779     51.491605062738444     49.771440329653046
H      51.130665843054835     51.206862951977890     49.408898689970478
H      50.478821478497863     50.567857480937732     48.787574025570244
H      50.507262341841894     50.830208163977389     48.163060669909349
H      51.174878869973696     50.513806623239084     49.424502036016399
H      49.905587575184171     50.939282858374753     49.041196371804880
H      50.790792114515767     51.851693813907140     48.328340599217000
H      50.965406247434792     51.624859740832385     49.166813624542563
H      50.457324837191763     51.196911616347570     50.167030374871281
H      49.429103315887488     50.452140392761841     50.072536670930319
H      50.329028980586770     51.381901726417382     50.650123199292999
H      50.178225179925143     51.992584730410130     49.401250841364060
H      49.762251738537046     50.539605693164184     48.081106835723958
H      49.005907838384026     51.122389631829996     49.408823074239990
H      49.837649106203145     52.343666272492619     49.141698836587771
H      50.856949981001186     50.801755856253735     50.317658945746345
H      50.250761438985172     50.883970741083289     47.621155687010614
H      50.089203178652937     52.335411562646968     49.923834401172584
H      50.433752500143761     51.685496559658773     48.828432818665377
H      51.023022279893944     50.897652662639437     48.076800709705651
H      51.004742240390513     50.402325493870329     48.806485363325422
H      50.791647929845944     49.910016834726491     48.801374930553287
H      51.099747572295868     50.751784434572450     47.377414722207298
H      51.267041063101281     49.960607527620020     48.155948229200220
H      50.611197161816314     49.596458332837116     49.242688737287367
H      50.726527451535645     50.552431634298564     50.935449888578468
H      50.081159514528125     50.945470035237044     50.913722015818671
H      49.437906364436635     52.572832480605662     48.849352915813874
H      50.948922611402594     51.478727917834718     47.189533670501362
H      50.196395975181552     49.900858774445524     48.658979945399942
H      49.378627429657669     52.666754855596338     48.248991613702152
H      51.004937357713352     50.966705387294084     46.937128256882275
