38
lj38_benchmark
H      50.000000000000000     50.000000000000000     50.000000000000000
H      49.490691230727435     50.111184158701981     50.275887098290880
H      49.240059029574603     50.812530593384956     50.323669045844504
H      49.290993001724715     49.729312980072237     50.817896559250237
H      48.941580539929085     51.399737705249635     50.255590176788601
H      48.737829414609230     49.517228454961291     51.276713934712433
H      48.865606633065184     51.927207538524627     50.633258670893014
H      50.626017895207724     50.145483013517619     50.004897431094889
H      48.968478199439268     51.889755954109575     51.267813395214432
H      49.354215887434350     51.285714323777242     49.920431643146756
H      49.220838271020945     49.147218066268834     50.908550241203308
H      48.555545763844947     51.725837389449858     49.976405377608437
H      49.507358569843326     51.016684456611934     51.000018523151013
H      49.000179814593103     50.971739011272476     51.369797184413216
H      48.614080223182967     50.642556125113380     51.898655294525604
H      49.940660550194750     51.183539449601987     50.549784979787098
H      48.744459571976165     50.140712358897176     51.727738743731692
H      49.058445976555831     51.214091428989732     50.903014577708696
H      48.327609561532547     49.166371740009808     50.684429359864517
H      49.789092094615093     49.940651554393739     51.163882029204458
H      49.131308639398803     50.287069281984820     50.611232074240448
H      50.373252469783850     50.392427664182151     49.438300403237015
H      49.277363146151750     50.074233244872083     52.216143764591266
H      49.831698740944539     50.930015461461913     50.079844696331890
H      51.290930184424823     50.288651908667418     50.029642626824341
H      48.609170577645649     52.436508147848052     49.793065064676696
H      50.602248921038594     50.996086823126774     50.710753482175683
H      48.606889708417448     52.553482271151410     50.548098176960224
H      47.968463860807667     52.795471148977647     49.949051205702673
H      50.395482233477537     51.673108280558452     50.252159977718172
H      48.640970456805235     52.326696388980409     51.840255812034037
H      50.400825961148271     51.304776086605457     49.809020031752198
H      51.592971541009682     50.578253001954579     49.692248778941249
H      51.396663992884143     50.898305806002270     50.194393284584720
H      49.135266483991579     49.421481149118229     51.585212327474615
H      49.017518801364531     52.296169927476505     50.293808981511887
H      48.182790863717003     50.561599065588105     51.545477639046467
H      50.359306700890734     52.141620495405355     50.602244925092762
