38
lj38_benchmark
H      50.000000000000000     50.000000000000000     50.000000000000000
H      50.382522111524722     49.635328110474248     50.284472173632658
H      50.448571835385891     49.357714005517217     49.876263705902467
H      50.070755629612883     50.383009233572004     50.518447764120104
H      50.527198303802813     48.763804117072027     49.581172441206192
H      50.726250660814642     49.553582568365940     49.346443608558808
H      49.987162543339188     50.282705768524835     51.266307096443619
H      49.697392618863276     50.807218138860371     51.691618032773363
H      49.828131979805477     49.942120246976636     50.531329256521360
H      50.650741263198036     49.506522055460238     48.759753868090257
H      49.206548595673986     49.803036388048277     50.654302445618910
H      50.083912695342690     49.151369411087593     48.667338347322122
H      49.840103952105721     49.523596855026618     49.169805487232537
H      49.844419241776883     51.264647456922845     51.339200223693965
H      50.634202451342041     50.761470394982553     50.131795832689320
H      50.376320551975923     48.351364871164819     49.019396466939298
H      49.201933567640260     49.637066001093110     49.340395512118228
H      51.068595762575043     48.718230431498114     49.801417053362982
H      49.912433627481498     51.449945391114532     50.794343582462105
H      49.608622766079634     51.814260416429875     51.309431233347205
H      49.011156265736453     49.469546844966409     49.940294224431241
H      50.565207914928429     51.252157462225988     50.043559990331914
H      49.441139039866307     50.334918435057993     49.779230906991756
H      50.342204473156031     49.742473986950557     51.519623888691925
H      49.697622233277706     50.393530992854515     49.214690639376627
H      49.551444510571983     49.548701183640105     50.178971187410937
H      50.911574675497498     50.381994418358531     50.367770654663310
H      50.656356437561918     48.777707462246852     48.389573040319306
H      50.212789030441996     50.025352454912408     48.384578618272826
H      49.559114011496440     49.050154312257447     48.144321689715809
H      50.388414073036216     49.994355161135928     49.591905974207862
H      50.250610559582938     49.042405400896634     50.691166348871974
H      50.276700860284848     49.315808859280708     47.926958402569717
H      50.226474084548762     49.829446184652895     50.954281809000754
H      49.772583586268375     50.582609422257406     52.300323652298168
H      50.873636938626468     47.994150860701438     48.825683049630214
H      48.627225666191968     49.223786268628643     50.200786791303635
H      50.088863087928956     48.338712683133636     50.686330213585762
