38
lj38_benchmark
H      50.000000000000000     50.000000000000000     50.000000000000000
H      49.690304269553231     49.379410844738985     49.647493105189028
H      49.673212859371411     49.827198786469566     49.054901550391484
H      50.259863524871278     50.225103581278141     48.761103580131959
H      49.681780321760769     50.323412349625492     50.516679061007530
H      50.634992692541019     50.519333380265415     49.001788536256164
H      50.092891526741916     50.662877880605350     49.892489105630943
H      50.553957969862580     49.540369252383748     50.126440391750883
H      50.381835467494142     50.240893904195147     48.018583015777715
H      49.863832486697447     49.996544369527776     47.542456402192947
H      49.847775794195812     50.731473450078916     49.104872787532152
H      50.132126134886562     51.197911729812326     48.537178436397710
H      50.291143046749859     51.668551432091704     48.949945025402180
H      49.137087989735612     50.122009107649980     50.692315013642329
H      50.846322769145530     50.490983772054207     49.755748593706222
H      49.234351423019490     50.125560340477548     50.075485544088849
H      51.277271584524762     49.301746196383014     50.059917737167737
H      49.600908823561710     51.574786846487100     49.118508563438930
H      49.330049986256775     51.779970554754058     48.406951102562537
H      49.326248086253770     52.349667725478632     48.349467123560288
H      48.914718670977237     52.305003169611012     47.690653631881290
H      50.755363692254477     50.681748422824292     47.646218382008534
H      49.871740666216169     52.027775752382432     48.884929497623411
H      49.627263702420450     50.838538627599391     48.036076717647127
H      48.901091021054818     51.515537246830981     48.377979033170575
H      50.025037227930284     49.283184867291681     48.708600046496457
H      48.283321269287121     51.939761233971531     48.570537413448392
H      48.887362735497319     50.909771227814552     47.840438766397433
H      48.565756181825606     52.374821925651666     48.289640059839904
H      51.746128035958748     49.748744793550173     49.798106711350982
H      49.298692576311090     49.020173500328141     49.241588970074737
H      49.868591266785671     51.693082017505638     49.717253659434853
H      51.483860686812733     49.276451690683274     50.641748281394165
H      49.010586387231299     48.583667865219113     49.480857364870559
H      49.392348892667265     50.398604809272619     47.717349927658567
H      48.582085929291374     50.302475471377015     48.075944232800211
H      51.857437450227074     48.850584225595803     50.378789956756052
H      52.467176597052159     48.983114436719646     50.394306299681709
