38
lj38_benchmark
H      50.000000000000000     50.000000000000000     50.000000000000000
H      50.154609543821969     49.589530618117692     49.649645484848101
H      50.365447755272051     49.951363818190551     50.485832576277097
H      50.464229672635710     49.720817626597039     49.232594335946914
H      51.096821361514415     49.488059701296393     48.979276434895347
H      49.613184500457628     50.458062026868348     50.093036286416250
H      50.826880418923452     49.562479967621407     50.189929227047493
H      50.788417749125387     50.162864953823345     48.891165922156993
H      49.241003651281602     49.961983962798776     50.397436302597640
H      50.779039647643529     49.681391321806693     49.632409844421268
H      50.513726954807090     48.895398353959308     50.409749090764436
H      50.062429196683333     50.474725758914651     48.874860570742413
H      51.870639127266799     49.540435658270603     49.023645828749096
H      52.622701192453363     49.499839722782127     49.301916476663237
H      51.307770150300705     50.481482117866804     48.477441461353663
H      51.565910044665429     50.358351933189851     48.980001426075930
H      51.073499517719199     51.128358735616402     48.640590824415973
H      50.301591318007311     48.270810474462898     50.029460416499639
H      49.914745393584603     48.520619815056186     49.731089824953088
H      51.659514725077521     49.991455935784629     48.505052119534298
H      50.398232014273560     49.985534539105714     51.128112224253570
H      51.745560140083903     50.312630154991403     47.871259175200038
H      49.980005952715445     51.131097878886472     49.240170489829552
H      50.686832829070404     49.991000640966959     48.377808297840701
H      50.598654977491975     49.363494226721677     48.629123936305930
H      50.008215098163141     51.251519219563690     48.738341164422216
H      50.194937415944345     49.777798635164473     48.482213688146750
H      49.888274900205303     49.871979319929061     48.956294700906057
H      50.392315618985563     47.475965286208691     50.017023669444264
H      49.577278718697563     50.609046088232134     50.584944848527705
H      51.444541565055374     49.434634185611941     48.586813802828701
H      52.104073599715733     50.225643634670128     49.343515430016836
H      52.056243090145152     49.376725806031317     49.612067069165278
H      49.390307087567379     50.795199927101677     49.157913520253693
H      50.403645699351756     50.918476907655737     49.706780243438494
H      51.146089362074946     49.569187344576903     50.646324574797227
H      49.601479753478394     51.625229510108277     48.237391417637845
H      51.237609899426843     50.193376824165014     50.276481583517814
