38
lj38_benchmark
H      50.000000000000000     50.000000000000000     50.000000000000000
H      50.493166674765739     49.953968050232874     49.898810906161330
H      50.609453517769047     50.650987834314193     49.842824752641377
H      50.128228049726097     51.149522579603570     50.177643055911496
H      50.094927177269255     50.580215428292256     49.241681305550330
H      50.692036921148599     51.480925318036626     50.467757920247415
H      49.735249931287044     50.463310775138531     50.418642865665007
H      51.249061113654690     50.006488894698357     49.892187729810558
H      50.353825676209972     50.747791603280021     48.535689406175123
H      49.653384914253238     51.466870405808542     50.351934925118883
H      50.323728611233463     50.450936198672530     48.033576270525629
H      50.840526037577476     51.141703283835007     49.622676185197662
H      51.587896720414861     49.413122781212856     49.563990317622419
H      51.956475674831950     49.883388527368211     49.567601132462450
H      51.821342508008428     48.813529790190429     49.323179951853760
H      50.951387956607519     51.494515707559685     51.206935945620330
H      52.538237604460122     48.733951909339254     49.642544052702270
H      51.581062721317828     49.976662141798464     50.324911147557806
H      50.199607452866047     51.442356711207040     49.248282238031813
H      51.008484596245161     51.043812002583557     48.852922982115622
H      50.363780510766908     51.423430790355468     48.287777278885351
H      51.065850234847609     50.106707583803427     50.740448230923562
H      52.271050239783165     48.850366208753066     48.718560392920999
H      50.879596708187556     49.546031094579511     50.723040375204832
H      51.050249554449188     49.252721334100762     49.800429112228926
H      51.096386986494103     48.972072617299730     50.614296577436022
H      52.688072545329824     49.259861747816046     50.105106730718710
H      51.883911384866636     48.473687804076135     48.696757676746813
H      51.107040239149818     50.496328085047260     50.064389250010358
H      51.091958814284411     50.765357741750002     50.981096090487192
H      52.731119287952410     49.829526626506244     50.566873258000932
H      51.247208877848891     49.832658934703680     49.379980806225191
H      50.340131842869567     49.070253910475508     50.101208501576210
H      49.509004856333611     51.787984087096582     49.971009493619121
H      52.966812615782992     48.441036246165304     49.617904175825203
H      50.821264847232683     49.478062953242841     51.432429198374479
H      50.909602574211732     52.018654456971028     51.711663900157177
H      49.726619959358956     50.257410837391383     48.140655753004665
