38
lj38_benchmark
H      50.000000000000000     50.000000000000000     50.000000000000000
H      49.606058363813752     49.432736263303660     50.248785904291147
H      49.130042000011933     49.838314121677868     50.036245975426510
H      49.068065611351471     50.264448810243373     49.673759977958063
H      49.126475247367310     49.539469778825449     49.590133664564739
H      48.644352237465007     49.218417510157465     49.583028977749805
H      48.998535047052911     50.281916692810036     50.355067823881996
H      48.916960039266918     49.737377714171259     50.857378106618818
H      49.843587201945617     50.416268297498178     50.561330145560490
H      49.996906866484764     50.389477233634011     49.502157247336761
H      48.092872565598235     48.748529677587875     49.283563020641218
H      48.336539501821662     49.378296633578984     50.220181314166901
H      50.074424746526894     49.774151741710341     50.736484810309378
H      47.690424346682526     49.493405894240674     50.460189814348077
H      49.820849133080173     50.243152970172034     51.330521017004067
H      48.657781162987781     50.016041099753778     49.903597726413530
H      49.206574886075373     49.188059309789722     51.126207521462213
H      50.232032221369252     49.664236999879854     51.288109626346639
H      49.612162694983837     50.172860171107565     51.847304253041656
H      49.773253214767522     50.565156829425320     48.846893656389803
H      50.225980863180048     50.093936355839297     48.623111896599326
H      48.920943301813132     50.937043452178521     50.290514732118041
H      47.744371803810282     48.290778098637638     48.897957840180673
H      49.449710320924012     49.682512033087313     52.129789933171296
H      49.787731891790905     51.211589283649111     50.597442003992768
H      50.340096264768889     49.101733976212074     51.760267258770192
H      49.879602803244886     49.448703046597650     52.578897375032064
H      50.551437573773292     49.685540405452400     52.181798065612995
H      50.177459958444089     50.808935838588347     51.027016198482514
H      50.647687530921843     49.651613625110357     49.776087267041746
H      50.732946439887883     50.093895219179764     48.878850146206389
H      49.212326256666550     51.511683924774850     50.772849822087622
H      49.345796914954498     50.668107619880566     51.846501407772507
H      47.085009255367048     48.320112431320794     48.853382597421188
H      48.319342137772310     50.644164177532659     49.957321419216008
H      49.182797635033666     49.994640758706787     48.963985207138002
H      46.949792341044294     47.605269839617129     49.155893369115148
H      49.337188892423001     51.252059367029609     51.984646621451063
