38
lj38_benchmark
H      50.000000000000000     50.000000000000000     50.000000000000000
H      50.277340087634066     49.512392119379726     49.423140536488667
H      49.617158597687386     49.314818422044596     50.023311487435095
H      50.141008287504697     49.080507457172033     48.868547734368072
H      49.741845002689459     50.082255077896029     50.706620703834034
H      49.674432769664499     49.325551066484763     48.673415324279397
H      50.170405399671651     49.169488168750263     50.511246284842301
H      49.719693473298349     48.735228210562092     49.948336935455508
H      50.408306449334653     49.656247591719165     50.729822583356508
H      49.095854918226998     49.085149917266541     48.704161836995929
H      48.724577972762596     48.473245314199119     48.951551600526351
H      50.397353156355663     49.375090140568346     48.441794917436503
H      49.117161883080563     49.429231070360345     48.033598790730196
H      50.777144685550873     49.621782271985211     51.355625215844796
H      49.596292437952869     48.649355879595831     50.608332089923522
H      48.981042037709464     48.613589276268407     48.412739450860428
H      49.321373985210080     48.089265222451445     48.020179360937874
H      49.291661555314178     49.876412949987980     49.925400020419048
H      49.158961173095946     47.496157940002611     48.505668766332647
H      50.643636293368139     49.901451816933395     48.790159367489778
H      50.484472594914571     48.572595523742166     50.809896205309151
H      51.362236090399328     49.142897847785591     51.608135252242306
H      49.467394260455912     49.541717677967824     50.897116943573899
H      48.050464111043453     48.284274382298626     49.137950191991138
H      48.775471099013735     46.924599703931001     48.176610446233909
H      50.859935136314910     50.406440082024467     49.249003639282051
H      48.068149959306162     48.622545121289122     48.475738185530723
H      49.091346452638192     49.656066773315899     49.135113538182480
H      51.639624309948474     48.586781055729389     52.072328855089800
H      49.461101830709453     46.920612456538478     48.551741972302615
H      47.559104580546958     48.215215873493541     48.814851916864448
H      49.432915329588042     48.106299197435902     50.270187856731319
H      49.928729331442810     48.001734748567991     50.489907857784317
H      49.819355373494389     47.264706664185063     49.163703554976856
H      50.457954374501291     48.949955786236657     51.175626197255731
H      48.227461856534816     46.839456002109074     47.703530539595448
H      47.800667121321105     47.138968735332547     47.890721839328762
H      51.927694374212734     48.196053395169322     51.542201477585081
