38
lj38_benchmark
H      50.000000000000000     50.000000000000000     50.000000000000000
H      50.726709796925796     49.791114181399244     49.983976325269019
H      50.291328861751445     49.754098505657311     50.521894076881225
H      50.587721398147842     49.345919065178180     49.785219877430762
H      50.903678086714756     48.832433162665623     49.360649524081751
H      51.010210168216325     49.143375869745761     48.666528414478876
H      50.774491705123701     48.606612617543384     48.651914467587957
H      50.693875272449169     48.152392738220392     48.916157713987687
H      49.878093658419402     49.333966963312598     50.555697722411146
H      50.266655726725517     48.200361760890921     49.458684762970563
H      51.265145283684767     48.158187250363355     49.226498023725306
H      51.283408702210586     50.252629722356524     49.694530319249203
H      50.274738144812382     47.769455964560628     48.842987084257039
H      50.138828154095769     48.864085544498955     48.455101323403056
H      50.602408606766915     49.581315985550738     48.777627125328401
H      51.234994462553423     49.639092482842031     50.472897403483856
H      49.561794809038524     49.290605946540261     50.134641980618106
H      49.384819538402439     48.643171337449772     50.502421168224465
H      50.743677167460767     47.919641251749461     49.911637668763426
H      51.529899216068124     49.558153904337331     50.935872534269159
H      51.446193072088960     48.808908812855734     49.371370806194093
H      49.639667742435492     48.924081810884509     49.018863261200579
H      49.746053829213352     48.362139170196812     47.966243811836904
H      51.637382354013354     48.633686474433844     48.633560310698535
H      49.963605190176530     48.689332209946656     50.525719296886180
H      51.550265681685985     49.443354387555758     49.717757658969859
H      49.430977161290052     48.917350846062078     47.979833502547876
H      49.867588549324616     50.213241185750498     50.973729544316086
H      51.932139984778274     49.790553847966763     51.179594533011581
H      49.703598414562876     50.541184677228628     49.506288522052138
H      49.409743903031938     49.542116821494936     48.851814392738063
H      49.350529911821496     49.353665209179468     47.316666922488970
H      49.135447565720689     50.378474954730265     50.699932891065735
H      50.178900390458622     47.941212455835199     49.984428449201658
H      49.997587398434462     48.930216695026729     47.688464263629264
H      50.804052734832233     48.472419322082466     50.304982691430730
H      49.396477859632498     48.026062122950883     47.591917243557440
H      52.126171360620802     48.583345307341901     49.266545309801685
