38
lj38_benchmark
H      50.000000000000000     50.000000000000000     50.000000000000000
H      49.433268795689983     49.946573499491414     49.773589151449585
H      49.844106401054688     50.473831959830697     50.119627556308622
H      49.676567576124938     51.131647765385608     50.175138677234038
H      50.013867204209923     51.320287896762920     49.604365809902475
H      49.330722917573091     50.804717800479700     50.383932259613722
H      50.573625934629426     50.894033584504406     49.293969401299577
H      50.386121647548414     50.590730591359325     48.799686436910306
H      48.984876296016864     50.392672982700589     50.100018754880459
H      49.369505660074950     49.771642182471567     48.999706960844563
H      49.230725154310342     50.321467762540927     48.762581843336058
H      49.529113073034992     51.747371593335437     50.287178973227910
H      49.240004142990493     50.979944820579867     49.126463717559339
H      49.302460186084268     49.632712061141476     48.377481223136677
H      48.978750182434865     50.084009633008343     47.968524733993753
H      50.538447173733807     50.225002037642234     49.323427855659041
H      49.024143940445597     49.557565429066855     50.334680450037851
H      48.728410764076536     50.667889530565844     48.979140087316523
H      48.603994525194757     49.614483220876252     50.832639375790293
H      50.667850500304525     50.046554330389931     50.301260053681254
H      48.156703902565781     49.491072730878727     51.313737229366424
H      51.217145203511194     50.249642246580585     50.466019492487277
H      48.431785313169449     50.411399439761873     47.534265532187689
H      48.016500819769902     50.080798009839839     47.307899276879638
H      48.308985113501919     50.382702613387771     46.891110617619489
H      49.360354111909821     49.051513751952989     48.345574859087954
H      50.455848533836644     49.573001004485100     49.161289938394646
H      49.797848204160815     48.601861756863997     48.791828713510363
H      48.676937767240219     49.048699693323755     47.959991986851506
H      51.656542921823117     49.970574009879890     50.184505018355807
H      47.925132783587372     49.283182342494783     51.874072716452339
H      48.370443119354761     49.085057421576103     52.011784429427522
H      49.907392677798690     50.271570982256449     50.573300690546745
H      50.176815206971469     50.065855587424323     48.786127078884128
H      48.809839819455405     50.605748472567875     47.052509052043966
H      49.170897807089915     51.864058068948388     50.700918077906394
H      50.877061629596810     50.433711776007591     49.945037226543207
H      49.760562932825430     48.172455049974161     48.375660623589241
