38
lj38_benchmark
H      50.000000000000000     50.000000000000000     50.000000000000000
H      49.379860983800675     50.501608990475837     49.964819788198426
H      49.020636673034005     50.611756711252426     49.292459962877743
H      49.116006571407603     50.998300804129357     50.256621718346722
H      49.075571374444955     51.320696310586776     49.076280269516666
H      49.666789158726296     50.751254187779068     49.481207873127808
H      49.196096072940605     51.082911107852922     50.792543666161308
H      49.467016906930922     51.477619243234315     49.514764040273320
H      48.844094817439178     50.482077152612725     49.802988117496078
H      48.912965104399582     50.293038172813837     50.270241014675506
H      48.879543834068443     51.815061571756473     49.787576985581559
H      48.248781770230295     50.684124957033667     50.289988954022199
H      48.168989913910472     51.232364981945075     50.426362449049606
H      49.249567064247572     51.150354460869181     48.579993397879818
H      48.626290788056096     51.148225955974858     50.716875726399337
H      48.778969806493770     51.528512814445826     51.347566310779555
H      48.285845249509663     51.423874267396108     51.580298918500972
H      49.388178376957704     50.808008281309341     48.201146825325637
H      47.820732180264457     50.695022722394114     50.920437187510572
H      47.505680173053818     51.163814841284740     50.679828619012952
H      48.865885149157009     51.119887446982290     51.806437767694398
H      48.804798675593680     50.826373329137702     48.456039153991156
H      49.200630006933920     52.304795765299026     50.154987734972899
H      50.123590038465323     50.393237981917451     49.169365835152888
H      49.913183003332570     50.998364712702319     48.646587295359787
H      49.263209731490100     52.302271150213066     50.695185023262084
H      49.715878454900114     51.225688498374609     49.159883248182510
H      49.382408295858994     51.078608319439283     47.522828686753591
H      49.695474721669711     50.033081311779149     49.580545584412036
H      50.358800803041312     49.669062477311641     49.480673191727874
H      49.139764001741320     50.362951189351158     48.329929582025045
H      50.185731214571838     51.649306798715507     49.803144052929625
H      49.774666499502267     51.802429536730870     50.818795305178547
H      48.341560151333120     50.163577622883970     49.266248539211965
H      48.293710149013940     50.661318742783074     47.955191648575656
H      49.146029340077071     50.847391180122180     52.279498956208641
H      48.563248886782972     50.943180575197971     51.310794510014496
H      49.978293691773224     52.579214003160409     50.832348092315712
