38
lj38_benchmark
H      50.000000000000000     50.000000000000000     50.000000000000000
H      50.267144632120683     49.747655332518192     49.510787707855513
H      49.382195771876781     49.838507802875633     50.430772399811502
H      49.265098845910799     49.128444818064743     50.452014846521905
H      49.712726545687538     49.516671276595332     49.251485749269328
H      50.147842539071689     50.391857558952182     49.666568506792750
H      49.348723891938398     50.428538249054434     50.486415836685225
H      49.698554976128150     48.825951783999123     50.642899953045344
H      50.569006189624936     50.481701578872311     49.944665773353549
H      49.459389491860783     49.178724753314739     48.913365807688159
H      49.319154601123699     50.857195214084236     50.130949598800335
H      49.130792951481574     49.389560801148988     50.883012417814662
H      49.547754697835444     50.177625791356853     49.183524192341572
H      49.373380294790913     49.006715397143338     49.407240665595580
H      49.490503776308998     50.357493259041462     51.055211670245718
H      49.175645622699243     50.452280822190737     49.406433578762964
H      50.720721778305531     49.569377568134612     49.310540345620211
H      49.956537021702729     50.516005872479774     50.323515580521224
H      49.424550006294147     49.279753470777024     49.884779965414374
H      48.860838842621497     51.292450266224989     50.165852556146973
H      50.041347583213373     51.133172713120018     50.441499343856414
H      49.042196397989322     48.522738165217639     50.823537978724303
H      49.069752362901639     50.295482552230361     50.053957953180699
H      50.236354464608020     50.831485811420443     51.049925447191995
H      49.964584429062675     49.179305262846007     50.231912774305627
H      49.503892618278336     49.040017123011843     51.095290258498814
H      50.474868876984239     51.627934497853985     50.197184191317014
H      50.154046908290212     49.286080970822773     50.813334513300482
H      48.204275258753420     51.640531877072618     50.117944386319365
H      50.364277851335537     50.411544225247695     48.947026510380532
H      48.742028290067630     48.647362169009661     49.062469387186432
H      49.837821994474453     48.343405808239275     50.901659046992101
H      48.506834244916675     50.732748513850851     49.232548203804988
H      48.625138200521157     50.505910588914453     48.791787049374093
H      50.374448860152803     52.365331739746715     50.491928717893394
H      50.552047514631695     49.942373664375829     50.094271124290259
H      49.847585877905345     50.924038899076855     49.162654427033324
H      48.406678572150845     48.437111604109027     49.466279277019360
