38
lj38_benchmark
H      50.000000000000000     50.000000000000000     50.000000000000000
H      50.070151799934472     50.373029691238479     50.501404850799268
H      50.058962873951138     49.854177896293557     50.757526312044426
H      50.122201889287695     50.885721513009472     50.219310376751856
H      50.485162539807909     51.097561057961201     49.811494659152082
H      49.595585136772819     50.925485391556172     49.818139808159231
H      50.070485240748773     49.254697752465098     50.837865857263310
H      49.374019992076867     50.642254471564833     49.444115211338271
H      50.604660036665472     49.870363948717298     50.131400397096904
H      48.990674105121606     50.845342028055001     49.032748571719516
H      49.436554329813568     49.807540851297006     50.354854426740609
H      50.722362452632410     49.611158360471222     49.436444494217916
H      51.443172218542067     49.684117056761622     49.225064049109086
H      51.889404325740593     50.084957432774857     49.363824712976331
H      48.929900562528339     51.525158054959249     48.959207019434672
H      50.605748252634839     48.890180910561490     50.608225801729105
H      51.185795033596335     49.436918533068081     48.840747108913760
H      49.590249202771695     51.036673148466498     48.811236469559397
H      49.529582581489599     50.472392001948364     50.783199848214828
H      48.882856390671527     49.574200694921331     49.908795292203131
H      48.946118325245735     49.674535203771924     50.639713752244759
H      49.957800382318581     51.360510023851418     49.699701158373877
H      48.527075884858277     50.097732817688616     49.865863228568806
H      48.391875899887815     50.412624389168649     48.779026179590268
H      51.100352164295288     50.071343716551276     49.886617963884511
H      51.769087761076229     50.355652122150801     49.849207231587840
H      49.147249740776999     49.110462058786176     50.291678580997200
H      50.071573168620141     49.531724759821863     50.237377747087194
H      49.378159838236698     50.313035893628410     50.253566693075889
H      48.400354770529518     51.796949781581596     49.361701879398368
H      49.391615924448757     49.333725932220126     49.751848229767930
H      48.233217999419239     51.925146703256857     50.041679090421241
H      49.103731502173922     51.628625730169006     49.460936951441255
H      49.363037874517609     50.086043114286326     48.949212590939183
H      48.896777523684811     49.464849838782904     49.330257339876532
H      49.512248672465866     51.805896837379159     49.743724369072432
H      48.462128971720354     51.218180814502141     48.941773533081161
H      48.100143922102276     50.481605391858494     49.949879308421018
