38
lj38_benchmark
H      50.000000000000000     50.000000000000000     50.000000000000000
H      49.820258043781372     49.672648829389189     49.332733574587323
H      50.175062645724168     49.577884204977167     48.634938922690367
H      50.329473289252121     50.216346100905952     49.560291627203249
H      50.037868068237543     50.112888154470539     48.112990452121004
H      50.606253370347972     49.032552400123215     48.453247635485411
H      49.489505069560749     49.179167381690597     48.728711940910351
H      49.718533908173455     48.740931528441457     49.082644428818860
H      50.416219062305366     50.409458441715728     47.786920373177480
H      50.631587842991557     49.781612359624184     49.219480807924235
H      50.688292957294820     50.443193815082317     48.938502133310784
H      51.206123194264869     48.703844358830231     48.641596647837275
H      50.548587526347454     49.050817958556586     49.317020725594901
H      51.097035103615077     49.912201145065225     49.416413213306917
H      50.485187389545025     48.498772994335113     48.424974488250662
H      50.938051518163967     50.783072817998359     48.542952974796236
H      49.457483618387350     50.289656070983568     50.261377067085853
H      51.420890736097768     50.448626856559002     48.764906304455586
H      49.102394658458763     49.852384123608111     48.808860232646893
H      51.572299940540461     49.611542038850772     49.331665833152336
H      49.587386756914626     49.668140701119619     48.143542066226921
H      49.949212835293089     50.182871909974601     48.680703258710409
H      49.164557860845306     49.523476872853905     47.876514620310111
H      51.207063862972625     49.616959577391007     49.890379973571818
H      49.623967099387791     49.018126718566059     47.745048629290601
H      49.992314934930207     50.664328740972536     49.555756885206925
H      51.049266924869599     50.042615909542441     50.266812699721861
H      49.522468335018928     49.376529384802055     47.270212167190465
H      49.763075785603398     48.317607629738561     47.972689095422801
H      51.008840599200639     49.232354418480675     50.508794325632927
H      48.925635619297857     50.022236361179836     48.341574727868696
H      50.763173732104569     50.168256953622496     50.660131258244107
H      50.159833320762147     47.873280916271725     48.342034528169584
H      51.407856378527498     47.939850929881942     48.623092673061336
H      51.820126756970971     48.985566564570064     49.323577692036068
H      49.056901973299425     49.675065318208937     49.480412058373240
H      50.456387264464837     51.169804072841245     48.648943558332860
H      49.631791348987342     48.526901013533049     48.487250983085637
