38
lj38_benchmark
H      50.000000000000000     50.000000000000000     50.000000000000000
H      50.520756072000097     50.043743432217688     49.960613430077522
H      49.688199685424117     50.377943475615268     50.254915953042953
H      50.070973993670293     50.292847619408001     49.396480664592488
H      49.659897597921542     50.538306626376858     50.759346213901367
H      50.063733676502800     50.815178193242950     48.897909717899530
H      49.910163801898996     49.694602279241352     49.060491284959177
H      49.611564429214262     50.771690794061449     49.775881421580081
H      49.635289396719934     51.451248662994686     48.915901821414302
H      49.155040223955936     51.206594881828906     49.152765692466353
H      49.397430365512236     50.322937798726336     49.649578198132382
H      48.732422994885852     50.821498087114797     49.439823830510271
H      49.301645890579294     49.599773621131305     49.323179012767653
H      50.302510711025242     50.696836832726568     49.729304481271846
H      50.126968502800523     51.373409684697272     50.119425634027429
H      49.390408103920848     50.978140546074812     50.504996339273312
H      49.512565588154082     52.189399854729388     49.116156523027364
H      49.495848303117810     49.273018743844020     49.906612065879010
H      50.677119747062257     49.396274412351055     49.927979200424517
H      49.489749229076217     48.908826716267669     49.351068486600589
H      50.098533599248633     51.733994851973215     48.428684315903496
H      49.443153817108893     52.698824059074525     48.754722606388611
H      51.212759014577365     49.259425154145994     49.999894611847346
H      48.966372030574320     50.645750910871378     50.936379749465424
H      48.745366005892620     50.129864328647713     49.697518885811142
H      50.067288909301631     51.371067515852317     50.856005738166161
H      50.758097449572674     51.325429319719220     49.809518522212144
H      50.818968273697635     50.079679525511828     50.426884637245259
H      48.756313540475894     49.468166063869980     48.783299972522748
H      49.925045895166406     50.326895126951705     48.407743384877605
H      50.478741650581298     51.741020353624137     48.965115921356237
H      49.743951898704012     52.023080584103518     50.025981637423698
H      49.879626447256584     48.644551885630129     48.724234587057708
H      50.799750112738451     50.047379557394329     51.066643306545124
H      48.021690118470687     51.029114764335226     49.346934348474704
H      50.218960930401025     50.882024708268176     50.501723297169910
H      50.079322998387120     51.262949983377403     51.616253724658861
H      48.891257800477511     51.713538892444063     49.455436875173291
