38
lj38_benchmark
H      50.000000000000000     50.000000000000000     50.000000000000000
H      50.550928521735521     49.715570803144693     50.192884087572111
H      49.627451280731236     49.576210539691367     49.975393201556159
H      51.154658318283566     49.274591237964422     50.379176863718200
H      51.538178528546375     48.972107100654668     50.864747432989439
H      51.140643919393540     49.689012189930644     49.756816840660036
H      51.095618151491443     49.516568677889587     49.290679649350437
H      51.917724233974134     48.760943750089361     51.115878832339519
H      51.520836341404227     49.323768557767032     48.706130540185242
H      49.861814901622147     50.113534514505147     50.689375629633915
H      50.963029393518873     48.728432930459839     51.106645933184339
H      48.921247145400727     49.239830445902847     50.007587759974939
H      48.740050479489675     48.816227932634838     50.527404245233527
H      48.390940247709402     49.707024830180650     49.901473054627552
H      50.154222224716996     49.447302550688811     50.826958980174624
H      51.697539866580172     48.140298212192306     51.269765783850843
H      50.033195925182561     49.144046256965098     50.039553519531850
H      48.509311896010800     49.583673355142039     49.141426719063325
H      51.576225465561620     48.782664035502876     50.312683399651938
H      48.438167990180020     50.360323296394235     49.695895762810075
H      52.203023668658155     49.685725800807518     48.595091215792543
H      52.164802590295920     48.956013268322707     48.567730645966549
H      50.535117353455576     50.105389965745999     50.889250227142760
H      49.381557814603113     50.064384978347775     50.556132236873054
H      50.022096731878221     50.617718332395526     50.795649253426895
H      49.688681672559518     50.794595563424075     51.314364888114078
H      52.030244630523164     49.092408690872702     50.489400027121228
H      49.727985646076888     49.263419592902530     51.227617644932252
H      49.147813339836702     49.467437163389611     50.634076955645725
H      50.535948064365819     50.722412785612413     50.970853080938852
H      48.987056645749632     49.568021811729167     48.900847723353053
H      51.788846954276025     49.731703357293910     49.990482861952295
H      52.380770684293822     49.483650534798578     49.864927969095632
H      51.833447893136615     48.697090682753306     49.131539344532534
H      49.903494260991927     50.921017093813575     51.937034830742633
H      51.038085833683418     50.642490238875489     51.080579486873773
H      50.004203082903814     48.454010976713839     49.904861222337587
H      51.328936720485025     48.386348934606687     49.768493029814955
