38
lj38_benchmark
H      50.000000000000000     50.000000000000000     50.000000000000000
H      50.249482369627117     50.503405597975046     50.478166529719353
H      49.889303328543612     50.619739147314320     50.932583166373149
H      50.662392355953521     50.386277189298930     51.124059226428010
H      50.293093187336545     51.036597757083143     51.485932714215032
H      49.598053240139471     49.656181442967949     50.525861360346376
H      50.646484889356586     49.686171252630764     51.357865917488510
H      50.492791487488809     50.616064092517732     49.758827020900327
H      50.112375605444697     51.062521767726800     49.873792476337755
H      50.995989411874532     49.940208022054641     50.785955707276543
H      50.164295638437608     51.739890684748183     50.181483771612342
H      50.773025074099976     51.193343483655177     50.289453324754369
H      50.185340728309519     52.022556811432693     49.533308391439455
H      49.696465312117347     51.178746078648935     51.602402755307992
H      49.921770321318220     51.768560833041832     50.654980823824161
H      49.853911871052929     52.096074427849558     49.035978680662268
H      50.099174947162872     51.672927498339078     48.749905960460246
H      51.226199787829785     50.351153738301818     50.201795517088172
H      50.361470226978895     51.663395449932899     51.041501977001197
H      49.349992984106969     49.769295939525968     50.065621813258424
H      49.690274469749895     52.020477857647172     51.256710340601359
H      49.346060109539195     52.481879680293488     48.861119714572716
H      49.530714479390213     51.450846101825924     49.386031942826143
H      49.739197447277192     53.139411697307168     48.854765987283223
H      51.933724800298393     50.204206356373490     49.947400243408261
H      48.928716138425273     52.427339786445586     49.505021395664180
H      51.682273252605157     49.960780103625375     50.693985007683857
H      50.497327056526416     50.496061774794008     51.777585460032469
H      50.071900876971291     49.536572216842934     51.607521301004901
H      49.601054482418185     48.916309018043407     51.511572829041313
H      50.705295024878659     49.202884709764419     51.913877318373558
H      49.069608426106235     51.639196099579387     50.014366296674751
H      50.291799858894372     53.283990078754286     49.306100711850320
H      52.341237617663744     50.199055488930476     50.896540299513809
H      50.459427823222867     48.965206226990205     52.345396947583311
H      50.002933240736304     50.627618357874113     52.067381228918620
H      50.291029443922497     48.705872540565757     51.696382708753575
H      50.793473954686462     51.064828635494109     52.015906131269396
