38
lj38_benchmark
H      50.000000000000000     50.000000000000000     50.000000000000000
H      49.404233229981628     50.358448567481858     50.021672456502493
H      49.917176994887001     50.862220621569762     50.262734579045237
H      49.570520673828909     50.100777999818149     49.337573847303446
H      49.340750246361090     49.544287417356230     49.443166415201354
H      48.830118242736283     49.999115214756273     49.256478408082586
H      48.814149845320578     48.981790421202973     49.431833987776024
H      50.250649268372982     51.372329313830043     50.446018853886699
H      50.447400334828224     50.379281268999954     49.639523939742787
H      48.657040435275157     49.054810307993414     49.936693775097901
H      48.960165127021412     48.630663178140551     50.088903081423865
H      49.060942036793293     48.565680581820068     49.028340142713176
H      47.983499367283045     49.372941866643529     50.040398922924560
H      48.621231921785260     49.530563369030531     49.537341340284591
H      50.290842908636506     50.133625755323678     50.637516836845911
H      49.204981122559488     48.878067230317384     50.790641840811972
H      49.467167366641128     48.141889815069526     50.425676495735985
H      49.678807152459918     51.561454382199791     50.062946036412171
H      49.842626684068520     48.573463893656992     50.311281850955226
H      49.819848684982396     49.323582699784303     50.271765203493018
H      47.547149019988915     48.833903746693899     50.236623253218326
H      50.463707624287906     50.839197258561171     50.123121098731886
H      49.461742185446845     49.783657842379974     49.955082335113133
H      50.380366048531386     51.853495437096079     50.581878397365237
H      48.717245409780475     48.889667281032267     48.536243177040873
H      49.319533030997476     50.886168778411246     49.848634307862639
H      49.083410047801777     50.361294445268207     50.708779601540847
H      48.435624206121219     49.094807373847814     47.843196088698129
H      49.636617841111551     48.091654758701345     49.893760489958360
H      50.262001447093105     49.737031825796791     51.265117821381125
H      50.994744030954671     50.589290629222106     49.980989580255468
H      50.641175400685221     52.021236467557273     50.969137198999739
H      49.783034233647427     50.349147672524616     51.384047756222785
H      47.722630266373436     48.068932573854731     50.103765670466814
H      48.385575051733127     48.819997403271259     49.033665577602889
H      48.111027809455756     49.764737370878152     48.037215332135730
H      50.894825981849188     51.029505913974575     50.568206740606598
H      48.649879818308648     49.906072756612076     50.380189047819606
