38
lj38_benchmark
H      50.000000000000000     50.000000000000000     50.000000000000000
H      50.107150771079475     49.479548689808638     49.439670600986858
H      49.754595912714706     50.638488105961549     50.168368797785050
H      49.443824900367126     50.032368409505771     49.490956710313128
H      50.233043347463351     49.919596410060016     49.207005636848166
H      50.363155152005397     50.646128730831833     50.363988358896925
H      50.398127772266633     50.520421403995137     49.614029928922555
H      50.155839841863909     49.534197326380990     50.572502016617896
H      50.615172256887973     51.204825763680802     49.925783077212991
H      50.421307230424198     50.510283139266853     51.099886549700514
H      48.971038097183872     49.656025863663160     49.361876264169041
H      50.118791401151071     48.912385409880983     48.916034578304227
H      50.371671279260092     49.702692347950077     51.202492202057364
H      48.348256748338486     49.767692233763064     49.239727056778037
H      51.074405441983011     51.018623404398006     49.484427655640900
H      49.450793840136988     50.391285596710759     48.841500616269350
H      50.423634221969941     51.573774651662781     50.543189370038242
H      50.525054747198595     49.045110529006074     49.685116960252714
H      49.305774373049609     50.206728406453962     49.993775451231699
H      48.080268736212084     49.908318208695398     48.805602368063440
H      50.168330533340573     50.227072954046491     51.445906466984134
H      51.651634956864797     50.931150052934960     49.239994940367374
H      48.488361740085843     50.128761921107582     49.715580786661477
H      48.614488300810827     49.493817740864110     50.137442905864759
H      48.498005646557850     50.594437177705650     50.086605240041337
H      50.645859099627557     48.435390945579172     49.560041198171490
H      48.277848975832143     49.243293800879201     50.646009191611128
H      47.850837668843162     49.178781897498737     49.234382193123572
H      51.709790747707352     50.276767812369734     49.579995208190581
H      47.711279428734827     49.997172986888316     49.816581586775186
H      49.057763744713569     49.526616333459536     48.849666559701880
H      50.935273164968066     49.692983994388882     51.348298848414785
H      50.481148404818939     52.070751239908546     49.936852198052115
H      47.867173161218908     50.690991631970334     50.073016823932257
H      48.055078069391804     49.078834206555626     50.166311380886441
H      50.705496990018773     48.990186614919743     50.531207505836328
H      49.807766044780287     49.170438098297616     50.380783794184545
H      51.233346846415984     50.473211015779654     49.996129638340740
