38
lj38_benchmark
H      50.000000000000000     50.000000000000000     50.000000000000000
H      49.962374570838769     50.238433529885569     49.479638453106062
H      50.133437189461418     49.713659718232087     48.893643689436132
H      49.474796683237486     50.360000953720331     48.876440226931450
H      50.007786344202778     50.696322481623774     49.228581531032674
H      49.307557219933059     49.879183730192686     48.305807716343537
H      50.694553815658821     49.653388761537741     49.995495931893480
H      50.174721948941915     49.450300060440483     49.855833774191701
H      50.433107415878752     49.744689336192053     50.485433078615607
H      50.152226053336825     51.437804314023644     49.034962339329091
H      50.438298853179674     50.188500221933374     48.674829562995377
H      49.256724786336783     50.688132522732104     49.195969563584612
H      50.152501816168517     51.972850373861483     49.177499120707175
H      49.725904075122934     52.656362685599873     49.192852016625991
H      49.825414411940010     49.758194505827390     50.564150389884077
H      49.522921127106855     52.681423995040653     48.540422917034981
H      49.599937595844224     49.862420348099079     51.291631240706081
H      50.308020281361209     49.967678604909686     51.221228791048588
H      50.655115960815522     50.617310154179137     50.929974520794140
H      49.437666164750937     49.994130700873050     49.852489512278744
H      50.012306095715488     50.869245737135721     51.237759448492234
H      48.993233986873193     52.357460653531881     48.419771677562352
H      49.760684836166114     49.776176051888854     48.562184074963312
H      49.918892190705300     51.654573654800174     49.846986382463705
H      49.212941250262006     52.338667907522812     47.936767034568938
H      48.857399018787341     51.900915012410806     48.235067922267795
H      50.165687870711501     50.942553933731553     48.762059171646811
H      49.857503057763779     52.193869490560736     49.854989434164843
H      51.029250150114080     49.483154252720105     50.771237308512262
H      50.058245485746774     48.987114327313435     48.562735641572310
H      49.515475947557192     53.418901001191671     49.176760110532499
H      49.175688116611411     52.673103962999647     47.508823827377945
H      50.549460318353546     48.939288290431797     49.949117139933392
H      49.952026575522950     52.434105165010699     48.684495134582370
H      49.190238299373334     52.465491362211644     50.134571058455641
H      50.429614845880394     52.613880317910777     48.568087948495112
H      49.589350626970173     50.477250078649504     50.993425554295094
H      48.304175228079082     51.666858599449220     47.946737947402440
