38
lj38_benchmark
H      50.000000000000000     50.000000000000000     50.000000000000000
H      49.435452755907733     49.564518520204189     49.646773666018554
H      49.127228163447711     49.687210663856000     49.257981242799914
H      48.681680611756846     49.876702859259311     48.713785359203385
H      49.482900459713747     50.299849486727865     49.264064960828648
H      49.306344687997630     50.114184041941570     48.376831268999538
H      49.473951344163368     50.842197916145800     48.349292978911272
H      50.239899224260064     49.739479984897081     50.479052365534052
H      49.313435927545584     51.576315368122778     48.163874112740700
H      49.704074595935282     51.910345640677427     48.215557011445654
H      49.190930254082510     51.421167010977108     47.459883887017959
H      49.640013459992893     48.884314905351808     49.477593200525263
H      49.719789396520753     50.132205822818150     50.820293903804199
H      50.317926753659208     48.729375101883129     49.076199668085309
H      49.688404416952210     49.731191823169411     51.321094180449542
H      50.203604273877410     49.222776105075454     50.355560317286326
H      49.154149887662136     51.369797206442854     48.601520045965223
H      49.876347977593497     49.198008327368186     51.293241729898504
H      50.086385458236556     49.047976604097798     51.796830962144497
H      50.304541975851031     48.076165743642505     48.685279705265877
H      49.842349905491368     51.193003369740680     47.263514264326510
H      49.094523883093089     50.773114426657521     47.384245365911283
H      50.325153645947722     48.257435253883301     49.354039260081180
H      50.371578974826839     50.348992049562163     50.250444793146016
H      49.398651913602933     49.311211814123553     48.882700525056244
H      48.585982876143859     50.561338609486775     47.367146010156532
H      50.648269814780164     49.787652607903468     51.095394281808893
H      50.275215537762136     49.746522730163584     51.875082611672269
H      50.030123054164626     51.537839935773142     46.882529280970296
H      51.165845202731767     49.452473763662141     50.808431973363923
H      50.350909145714283     49.719562279725899     52.507166075712050
H      49.008517640097587     52.298625251542958     48.296534045570198
H      50.009829361663193     52.189866097824577     46.963926181651253
H      50.049022602794551     47.933024880285409     48.259188953024562
H      48.461167819647763     50.466117867651008     46.852771995787606
H      48.766376453656278     49.713734367413650     49.618142185098570
H      51.548665466949686     49.456373472203367     50.390175433367531
H      49.363227895580941     50.640114021787490     51.334048486941441
