38
lj38_benchmark
H      50.000000000000000     50.000000000000000     50.000000000000000
H      50.236984117750225     50.038789339724538     49.262731493081553
H      50.231932344064901     50.651337838797851     49.998685379729572
H      49.634815692742748     50.328319620280340     49.857834361641125
H      50.690472843748296     50.097984119767148     50.038574409146193
H      50.657371075444303     50.734507156354262     50.449787970238873
H      49.495992950568379     49.610970774308242     50.458074730726779
H      51.278782004392973     50.396946618716768     50.025023094211654
H      50.677020084857837     51.399675347140700     50.010865883882914
H      50.765800766461325     50.043526070718919     50.787411918803443
H      49.733153828882372     50.150402211216175     50.587900143809385
H      51.375674197901631     51.660872889038025     49.817814332335452
H      50.573060997822857     50.758872356126737     51.023352824485258
H      51.484997333857379     50.785019704647247     50.406230014875078
H      51.231706473643882     51.797318338110792     50.485754271678829
H      51.714044580127599     52.049030599599341     49.678023758803391
H      50.518950355439053     50.648943321775000     49.313760820982104
H      50.940423431352961     50.935003552870093     48.896361673452851
H      51.252122203869575     52.179392662933488     50.968776417096734
H      51.179803307017394     50.093864575748803     51.120783982840031
H      50.487549910438361     50.992027800816302     51.529001511552011
H      49.835815298776751     49.336535209405248     50.736430627767810
H      52.425552847480354     51.988580289472047     49.570743215025949
H      51.635034940786625     52.504190913429802     50.915728235285314
H      50.605398666671100     51.600373871405040     51.836730351354163
H      51.560339006786521     52.330600074926529     51.536424253742190
H      49.431452046286488     50.359077947629316     49.357990363657585
H      50.782411925878371     50.498956470831921     51.742534650154695
H      51.778186269289819     52.411222398085592     50.280491463240729
H      52.151351663733095     53.043759025814005     50.322875728669530
H      51.332073137045732     50.100390795943852     50.523934583921140
H      50.121909768988544     51.435844695582858     50.025659025641396
H      50.095189364060765     50.336336309341007     52.070650896814477
H      51.093909852943789     51.168735995188783     51.152744937161231
H      50.180215737425975     51.343502173690403     49.449026427819391
H      52.468487861751214     52.751404279829458     49.529182463415061
H      50.756372653040835     52.134137897414313     51.798832310749567
H      51.282843950398522     51.856661001925715     51.804437571676033
