38
lj38_benchmark
H      50.000000000000000     50.000000000000000     50.000000000000000
H      49.394441956521490     50.483888805400092     50.044472372857193
H      49.132553175967388     50.080812877969912     49.685215768639786
H      49.512828819845204     50.311546209038269     49.424638505281067
H      49.988649409565610     50.874894487665657     49.168307395815056
H      48.717390726332596     49.866770743282821     50.194501082906150
H      48.524190697667848     49.706462118281550     49.698104627800909
H      50.504063319536215     50.621887657494966     49.436580554855553
H      48.173039178498883     50.302649090250398     50.552007177622407
H      47.968584432286058     49.210852667745087     49.884527689046351
H      48.364479310529291     49.784380752311336     49.075747462976409
H      49.693951113161589     51.289485900873629     48.995035671121080
H      48.725384319602256     50.291099894860302     51.072028555345405
H      49.015594391572854     49.347355028038692     49.802606925562422
H      47.683446440474910     50.925607866700453     50.640812597729635
H      50.828799100951905     50.085836604400235     49.739304429964122
H      48.169371722718282     48.794052583320905     50.407190918239131
H      47.930018871926983     48.126303547838766     50.492710100966377
H      48.275143042066674     48.588962632394427     49.827305405781743
H      48.110348645303581     47.807613615360758     50.996887587392628
H      49.210681671557133     50.221397638771904     51.659980603171590
H      48.334620762268713     49.064291875264189     50.863496079204950
H      48.782680349193555     47.810362272239679     51.267653420763885
H      51.067831921302648     50.875834515905012     49.584045840169267
H      47.233473539184956     49.091046295828079     49.769284147804491
H      49.220057505044601     49.501770281392986     49.065352825305020
H      49.053592141042635     50.676794585982535     51.452663616716812
H      48.188946658426630     50.830480197737756     50.724830177360893
H      49.345759304673663     48.727500272249948     49.426883016398705
H      49.480829287875068     50.873541101347911     48.348728958774004
H      48.744449590280730     49.393046316252160     50.832969447019714
H      48.546653364438413     50.256093900155918     49.549717311282230
H      51.553941050565207     50.983102712556054     49.828637252294527
H      47.661874088084488     48.474251748333906     49.571423927030011
H      49.844742101608105     49.248596834293465     48.896340223924945
H      47.464895590553425     49.519278785080445     50.338440555590864
H      50.042866102144046     50.300999878690490     49.277437948566480
H      50.101048709284690     49.836489088887170     50.748324726929724
