38
lj38_benchmark
H      50.000000000000000     50.000000000000000     50.000000000000000
H      49.603099278033810     50.385247128688505     50.002567157916289
H      49.558042414916763     49.540079850677678     49.765346365319253
H      50.168611503782856     50.327464587304256     50.655445836578949
H      49.522514695825691     50.349617937136870     49.417234177273286
H      49.998952345868645     49.981276445387600     51.300250219217283
H      50.090977450511645     51.016899615888015     49.896399721922990
H      50.728062095467912     49.990503181569515     50.488253177224074
H      50.488133303250791     49.846806451622250     50.027009641666737
H      49.175881277909085     50.444554813008146     48.811448162051214
H      48.898574871817779     49.806667647736333     48.655926597011600
H      48.590533779518104     49.254971003718886     48.868646999100832
H      50.296933949725620     50.410829510489400     50.005696272114434
H      50.451246607988004     50.653060146316278     51.240372418622954
H      49.039661466069745     49.974846414896248     49.623666835427663
H      50.398212073903721     50.963726403147739     51.738290608376225
H      49.964370811584772     50.109495997235427     51.808194286755523
H      48.824700896650214     48.775847066069282     48.269899040848912
H      49.032665379704127     50.752261209377167     49.265796121132077
H      50.628208633919620     50.710931137888693     49.546332721100555
H      49.672750305350995     50.755563318848914     51.117651907105383
H      49.969039801915713     51.168006688792673     50.952453667671627
H      48.512257368464248     50.285450188025770     48.715424302575094
H      50.191623732876536     50.315697989806814     49.072317945894405
H      50.109106163208551     50.914947171938579     49.070320022821171
H      49.258974999322945     50.838454453128264     48.142144411382432
H      50.700804751673331     49.480892165446285     49.750078948331726
H      49.842126067438045     49.653312223531870     50.852529342673066
H      50.571794280202170     50.649189878784306     48.611857207336556
H      49.536260460381563     51.214509641657713     47.717149163388875
H      50.584616526567807     49.160147861523569     49.168387431787295
H      48.688206377383999     50.652956560949882     47.643743768177373
H      49.433717658830076     50.205495126303987     51.268236954471149
H      49.528234023710745     51.188756220893168     48.635376258688623
H      49.406571831350583     50.286504981649585     51.868498113640712
H      51.043682496905575     50.381824729350683     49.023468476231081
H      49.162338293471471     51.847764550224838     47.648658702869596
H      49.301836455049404     50.438116890097263     47.653355191658036
