38
lj38_benchmark
H      50.000000000000000     50.000000000000000     50.000000000000000
H      49.306678531489794     50.362379217623371     50.072978359224983
H      49.820603625448868     49.501799410096488     50.270450788805874
H      49.040327234774345     50.707530510213232     49.814447551440921
H      50.738998135606479     50.211449224317072     49.885897907103335
H      50.287000844328034     48.957392404881027     50.520128816830535
H      50.574356703686433     48.769739142311252     51.197992556395938
H      49.825571891492757     48.807338128331551     50.694753870439904
H      49.811401573282630     48.416005882522647     49.992612885194980
H      49.065740814813140     48.956467994968563     50.820912081956756
H      50.131768508918505     50.182038240428838     49.351263573285955
H      49.763903341841939     47.809893361808221     50.240690391157329
H      49.465788216446953     47.416878692491672     50.588699042871930
H      48.647831647803336     48.680611189057991     50.393142883378431
H      50.485814369650988     49.749447340461401     49.280976184950447
H      50.112858169318542     49.605139403849840     50.931172045188823
H      50.558783563794790     49.170852140963802     49.636383059754628
H      50.117632681047318     50.326082412311905     50.626817171275796
H      50.999440267616855     49.026860777584247     50.154040593547663
H      50.984091432075488     48.866006942542427     51.610888247427987
H      48.749515326763706     48.708188295933482     51.350607961253111
H      50.404444159470188     48.182398097789658     49.517935913453726
H      49.418901795495330     48.620874110743443     51.226641837336018
H      48.449051424526743     49.178974136172755     50.938602534250592
H      49.232058934733899     47.135140274971377     51.013770408765531
H      50.540860385999423     49.884498837912524     51.293157411445009
H      49.597635750985674     49.402295890410706     49.814654719294765
H      50.945911877052509     50.146076940896933     49.315939164642629
H      49.787783426697409     49.276366106907652     51.480309232878334
H      50.113287576997863     49.075648342621299     49.339615292599738
H      48.139767114382465     49.348271933460225     51.423100806769021
H      49.974767632070566     47.061885288028783     51.313478949295295
H      51.127061014421358     49.748411144516922     48.847365702261385
H      50.298200759075044     48.229085101473189     50.169517693243641
H      51.373207398994381     49.222398915639438     51.065853980916266
H      50.617744135254881     50.681385500437941     50.435961706143715
H      50.382262101609562     47.512952255306317     49.515562557439914
H      48.606812988401643     47.280425440355849     50.574964983715226
