38
lj38_benchmark
H      50.000000000000000     50.000000000000000     50.000000000000000
H      50.466449511900507     50.045437605595644     50.510109591211283
H      50.947298886950733     50.457644801190064     50.343186946781550
H      50.225043436759208     50.538980452000757     50.719570323927123
H      50.449190263292920     50.909532306113135     51.068950971536296
H      51.175843824341207     49.708155658240287     50.308229403413264
H      50.021232789380861     49.582040170410352     50.522174795431781
H      51.459001446896679     49.260684770719351     50.705514727204935
H      51.296233782255435     48.885149882992707     50.198601323951650
H      49.513615052272819     49.417114617127169     50.300151809068218
H      51.721145563836636     50.179762866614169     50.601266723965566
H      52.201054565063252     49.996702932672704     50.480934610495076
H      51.498377878065675     48.966212332934241     49.432419793489046
H      49.681183517774706     49.826799394702952     49.634548996014360
H      51.597331298584322     48.291110632560759     49.015846926331214
H      50.222214978206210     51.423366107010821     50.735461402724802
H      52.149741580763006     49.245300111325570     50.229388791198495
H      52.152305706206064     48.985644980344276     49.018045143957423
H      49.647360003515395     50.366058359549562     50.651123493373376
H      51.740565290200699     48.767597037174845     51.222751572018197
H      52.324701325052104     48.841159403728888     50.870293650452318
H      50.776080004114327     51.351644116117427     51.362366511827574
H      50.851074759844707     51.008966589071157     50.226145249273031
H      50.881816946151986     50.742681952558272     51.856267642640809
H      49.761049090665686     51.670484389657325     50.422754651654394
H      50.864810632875674     51.670030831929388     50.704327187598437
H      52.038727347561824     47.993825535823440     48.549244216834026
H      49.753983441180026     50.885171371253733     50.772929514800111
H      52.561641083472267     48.022629373608083     48.686091151491020
H      52.915382198457294     50.273437631478906     50.309988201772555
H      51.076005635105929     50.095838851741959     50.779429719067586
H      52.010748671543773     48.647219811738502     48.091065494001157
H      51.265039798006377     51.066313231408820     51.940000910195145
H      52.268329284633701     49.021080165843287     48.350642593752326
H      50.220947813379908     49.324611010918773     49.321928403015711
H      50.669038265390036     49.050998362819399     50.581242546356052
H      49.448061192188590     50.557184544025979     50.205763869884180
H      51.826898817445660     48.514944555840920     49.996676035198192
