38
lj38_benchmark
H      50.000000000000000     50.000000000000000     50.000000000000000
H      49.643920676946223     50.201023289086173     50.372696098423155
H      50.231696163490078     50.185410099131730     49.552291027570497
H      49.484241480931708     49.782203469190407     49.885498859905738
H      50.686707302564386     50.675038204397417     49.783234374090689
H      48.890593095200266     49.731624511507086     50.157958764022297
H      50.238113455110039     49.338656983771735     49.859352746938079
H      49.203006443762334     50.765419967252697     50.606494290739491
H      49.200588087927848     50.912486038899026     49.927498230571416
H      49.012452731278394     50.369719786010876     50.090551201819444
H      50.418088385306319     51.024615605328663     49.336923948081804
H      49.428005653438127     50.759701398665861     49.497405972920603
H      49.140806457255081     50.022934749012734     50.743324038767767
H      49.837932295353681     49.457140215978413     50.420228294226405
H      48.653231412716913     51.109688803844854     50.723246145907773
H      48.822410404425497     51.710464190236564     51.131233754484448
H      49.176892602274158     52.371375446302103     50.845276306933016
H      49.312136320838015     52.186578219206453     51.558279395185004
H      50.054095575492937     48.704134562128253     49.532665486153874
H      48.516805149140311     52.411137756600553     51.353034964907451
H      50.090141728518866     48.383480143020293     48.948058717110513
H      50.633367001729901     48.948083797536363     49.002499173337632
H      50.961384758348409     50.970732365418812     48.930921201433847
H      49.989399031837337     50.579776773041530     50.716615944341804
H      49.541682870783717     47.986963750599855     48.828833350318227
H      51.198172953663580     50.993939714358049     50.264763549314054
H      49.682705371229467     51.362739746549707     50.442151912089273
H      51.287636825529113     50.967844556125684     49.312966957182326
H      49.654572039906377     52.433852964548052     52.146218309884638
H      47.886597513870001     52.722812733031361     51.730771533018633
H      49.435696434029694     49.123131224576284     50.259229180036627
H      50.178741858969971     49.678961891500172     50.825116626989299
H      48.186743108632562     52.193401807548426     50.717848797475341
H      49.055331221401474     47.433353697013807     48.629455446458913
H      48.101275096381329     53.149654527788712     51.496723540598630
H      50.348340818346998     48.548886623308263     48.449023344704770
H      48.124656762397841     49.916309494754955     50.085185508667600
H      47.755625571337355     52.254785851855914     51.621054244256150
