38
lj38_benchmark
H      50.000000000000000     50.000000000000000     50.000000000000000
H      50.234128460297583     49.797454309792890     49.535171872572654
H      49.797498390259598     49.602124260931006     48.968228561395009
H      50.367232873806053     50.315416855960130     49.476156794243110
H      49.285779027228600     49.762265628322112     49.183902418097560
H      49.190229126305873     50.202341957411257     49.609161067483733
H      51.019024594659619     50.194645705554173     49.233210475677765
H      49.644520945509839     50.235250187360528     49.100234678480255
H      49.409933132592712     50.270743568943111     50.288017016556473
H      50.098186072400388     50.801465719623714     49.384351233576815
H      49.784114288707627     49.866765448725047     50.584167825484386
H      49.742299830715332     49.342916823659799     50.154165411635802
H      49.357251473483714     49.293676336808879     50.866264618571257
H      48.863063913352185     48.808063529058764     50.507701309346146
H      49.593347502870486     48.919981692535558     49.149256032546759
H      50.307551482282989     49.863543566075954     51.158946469858371
H      49.606348395053750     48.867124593818403     50.249591133897731
H      51.216763699846531     49.635469036394625     48.814245187966137
H      50.048971597954854     50.957600283565554     48.793842248030124
H      51.941397596408954     49.572550833459289     48.918718255673340
H      50.625096537534063     49.836526388619120     50.046389080368698
H      49.128986058589675     50.820743994175054     49.957877414035650
H      48.800584048899687     49.141331877562571     51.236771929509800
H      51.068762410180490     50.285610346317796     50.415286229251237
H      50.041282468069966     49.438090297755870     51.350002108435270
H      49.412364364331573     51.066324528613187     50.283840868779940
H      49.758847021121504     50.682201417154097     50.869769534540964
H      49.237772175494975     49.334006940739101     48.468575958117036
H      49.777709335389346     51.399030695173579     48.412179646455385
H      50.388588526054995     49.671728429707805     49.074487736788981
H      50.023244293163600     51.263147726224240     47.872113657340478
H      50.764125550943930     49.515616956307298     49.676467424821666
H      49.022254253354447     51.536079617076034     48.231394052003203
H      50.170258541079050     48.760523629972312     51.645085393039984
H      51.234252763562978     49.222141284128746     49.814541743643460
H      51.391177793921848     50.795324452286820     50.600166263325804
H      48.305426416477466     48.995040251124962     51.676999139069913
H      49.035481679637932     48.558294970769161     51.507970681158582
