38
lj38_benchmark
H      50.000000000000000     50.000000000000000     50.000000000000000
H      50.526772429137331     50.361280501546979     49.832739696205337
H      51.034729735231743     50.478008935338501     49.653943648524219
H      49.703684700810555     49.642584446281020     49.450423926942030
H      50.164754307853613     49.704688721261178     50.661994888728870
H      49.876371917615472     49.086104829260513     50.284945925501866
H      50.121034893804435     50.943478711805930     49.468255965257086
H      51.375976109822950     50.919839554895240     49.757834681400752
H      49.407169231487281     49.728910250745095     48.710208070641492
H      49.797753629796638     50.978327656859122     49.021708203709849
H      49.375216537075154     49.828940465165275     48.190264299863223
H      49.769364665615640     48.952290798204622     49.674939312888526
H      50.218335966428853     50.688375037947566     48.802262356946585
H      51.434287947938671     49.856615979555592     49.818444941123033
H      50.969189545638642     51.416226499655004     50.049953319433335
H      49.755676549079531     51.542559729147470     48.699948849630026
H      50.377145900261006     51.351622889472885     48.713906519563260
H      51.840827094471237     50.484655267264259     49.269103619890672
H      49.224978463835434     49.434472336032684     49.772030728774446
H      48.789301180611105     49.234729425146746     49.219251356929938
H      49.847368501822153     51.477487499342601     49.785525615270068
H      52.183665825069625     49.908905595857583     49.710285921693817
H      48.975608082692425     49.083112368572536     50.160033380841682
H      51.265852944731577     50.452101817369233     48.833700157747330
H      50.474396936593955     49.278847585812287     51.180743847517995
H      50.444072338534959     48.820257724658582     49.399458060818347
H      49.119602733395759     48.813140493043406     49.576630906165256
H      51.858573194404656     50.940608139113991     48.747858691993876
H      50.937674573598422     49.150509115302057     50.674414591184323
H      49.703363362775946     49.264864736824876     47.987610285892067
H      52.717367708710540     49.872695672351000     49.553701548836422
H      49.439427696275182     49.034362971949555     49.007098206245075
H      52.776586225798354     49.655765612396053     50.245548542085899
H      49.397819038253417     49.357102003547745     50.733390608808584
H      52.414215643907120     49.202073375582827     49.890009967484971
H      50.755720714438041     51.163531290430065     49.501759303033381
H      49.601674929095637     50.370611512136520     49.989559531848684
H      52.745217053905705     49.495151856714998     48.865406429194209
