38
lj38_benchmark
H      50.000000000000000     50.000000000000000     50.000000000000000
H      50.417864891022234     49.589714560863982     50.236477176415868
H      50.377138607482316     49.825902459058142     50.938774677256291
H      51.108408686776954     50.108283951859356     50.986387031333457
H      51.109431726686338     50.022012324356311     50.299193515300935
H      51.165183076330294     50.543191533628395     51.545688831644647
H      51.513674848135402     50.883723081989245     51.385603109951532
H      51.107938430581939     51.053552859216225     50.730924935593201
H      49.919873905235178     49.671806292332114     51.492927806316693
H      50.614077872506307     50.863257570962624     50.600070669708934
H      50.534029614782206     50.324096137566940     51.470533434601045
H      50.017510375890240     49.222797312212194     50.838355268226792
H      50.795023820464806     49.529447791517192     50.622099092278020
H      49.352150789876895     49.411780248130583     51.611658457126509
H      51.861847838646064     50.418022010306132     51.164690603148394
H      49.380570543070306     49.340865049529661     51.071943924651329
H      49.839072511899992     49.086058777259659     51.533998063364152
H      49.712023158559454     50.640975662350044     49.905626965217522
H      51.243832694764485     49.224913220553525     50.250962439881413
H      49.654239858497114     48.795204731378995     51.955038189847791
H      52.324145795891027     50.596562098006274     51.010752877140128
H      49.846408174477446     49.267952683758764     49.964729932128854
H      51.185369503887408     48.823897607432080     50.638621308532180
H      48.750019888425932     49.213818225396317     50.977609157417994
H      48.304514831247836     49.101760843328911     50.649473589371091
H      49.378485319551011     49.888772801475767     51.907356748074598
H      52.156064037451756     50.852512642630344     51.645395196005893
H      51.366180176410609     49.067850972980629     51.357462571538441
H      50.967238906012902     48.503878482788508     50.134208851241816
H      49.596245456820562     50.173193345709912     51.490743772023180
H      50.076770408471795     48.268201478396733     51.995978266772227
H      51.966299671493736     51.417508496578435     51.825161215105680
H      49.927201121846437     50.040543377570643     50.817527012325648
H      51.227985364876730     48.184162402355945     50.450174924146310
H      50.889460431895174     50.596857639586339     50.990061702030829
H      51.349816664921015     47.732320772660202     50.188157451841938
H      48.586701204020720     49.816421876451393     50.964725052660981
H      50.661258042697227     48.611395348999324     50.719072904176059
