38
lj38_benchmark
H      50.000000000000000     50.000000000000000     50.000000000000000
H      49.727641387864516     50.374510626775191     49.773813437707325
H      49.884123644727019     49.558336185165054     50.508998755987541
H      49.303401769668795     50.751251806703777     49.539974060301837
H      49.764744500306051     50.004036195695804     49.257812632665754
H      49.005714558150551     49.899349297523479     49.013907037047751
H      50.219203072794635     50.316900411859187     48.690682483486682
H      49.818305426726099     49.411696857798361     49.157945992892941
H      49.643610876784109     49.617413518534633     48.415117942000833
H      50.530040694047408     49.715303151993410     49.649854145318905
H      50.284751335341177     50.418755713175415     50.130496450953984
H      49.389858235926297     49.078614648112001     47.955301276371806
H      48.334143684184959     50.020774383502690     48.586986472519591
H      51.264492977080636     49.777133155051935     49.777098149430032
H      51.264671427212441     49.338974543376885     49.449887767123627
H      51.347332948303695     49.617983822002110     50.328932938878083
H      49.445553842944285     50.325981880392042     48.463792274237363
H      49.066620282074510     51.512431248647673     49.649456308763234
H      50.916088415179097     49.739213534058415     50.919952257971815
H      49.027943311185062     49.715810560911059     49.516603965604574
H      49.494716635054509     48.998291871376445     47.221325379843485
H      51.176090317921862     48.894481787579224     50.620833785262647
H      50.801960951538831     49.498899606707496     51.517224587976493
H      48.585061475133031     51.146377716203894     49.279085780804301
H      51.309099448909848     49.853334970831085     51.719415181649580
H      51.652431621899709     49.180835438432958     50.443860903756239
H      51.904732949694790     49.281381015602101     50.929738559628206
H      51.439760247083306     49.098603852104169     51.316733187741832
H      49.207322381594977     49.098781550271177     49.968889753167034
H      47.798901128837812     49.576914392651105     48.674800232852924
H      51.359648628585013     49.422169052570467     48.922522121865114
H      50.604271027072514     50.144551841227369     51.198497030835512
H      48.787685987260467     48.651384083106876     49.817235321655936
H      48.157562427873614     50.678503575131039     49.468778571846009
H      52.161388828483808     49.007261779649276     51.470622729491325
H      50.637859161989532     50.143279211473676     51.972690496206660
H      50.936536563107850     49.419998137441993     52.281271139115155
H      50.733320254674375     48.876029594006589     51.569296049392420
