38
lj38_benchmark
H      50.000000000000000     50.000000000000000     50.000000000000000
H      49.925250427449406     50.194570541443731     49.254873390092563
H      49.823949860697589     49.733397298097167     50.566724195012064
H      50.023888222038494     50.635682298940033     50.194134042438783
H      49.429842214594650     50.290988187953751     49.500881890959562
H      49.428482639736757     49.247703770790537     50.779741432405778
H      49.381560520453171     49.966967132853206     50.741797326805745
H      49.440219115988306     49.870420863886281     49.956873227676311
H      49.873711619497541     50.944528013496701     49.711990862427832
H      49.997773087611613     50.654365328030572     48.928492853678776
H      49.821125717128979     50.283086008011232     48.626490241772537
H      49.868210311274858     49.578533406544835     49.573067716746820
H      50.177986006229332     49.360041627176066     50.626168280256032
H      50.596247534976214     50.676684274774559     49.518384864219250
H      48.991259905078302     49.176770143995824     50.238306545398402
H      50.132700240889783     49.400347820445177     50.024451165217727
H      48.861474905689228     49.406556109859757     49.677720703830758
H      49.057570555519924     50.384691184377552     50.853965012360916
H      50.768581072018911     49.651900146924973     49.636674082398400
H      50.387671994147297     49.002480777510897     49.419143071436508
H      50.715891197768272     50.942482569811951     50.414599238816329
H      50.718801442658204     49.040292972314099     50.789754535508912
H      49.442697946380356     48.637411678522305     50.435971407150355
H      50.975946695654180     50.140694423789526     49.040352571306514
H      51.136317364597048     51.364761867605658     49.923337094407344
H      50.335174804163572     51.008348857671670     49.137666680454338
H      50.993668352889564     49.301727747517909     51.391319407991013
H      50.860853912330327     48.820087313935169     51.491046146106434
H      51.412545659966113     51.324558670281284     50.368674084543315
H      51.980662974922026     50.794613270047883     50.558301601867143
H      50.360333368188492     49.584405626254409     49.071371816267799
H      48.265376723792386     48.894614926102335     49.786859217867757
H      51.017893938172584     51.204227525717513     49.240737494337239
H      49.585260439204987     51.032938986683142     50.409557497616490
H      51.954466277834896     51.101095208664653     50.965021612424451
H      49.594233718162123     47.925583629703638     50.181406877651298
H      50.158735248182197     48.336561329883935     50.344718301113900
H      50.666781806685933     48.118772451359192     51.524435822509126
