38
lj38_benchmark
H      50.000000000000000     50.000000000000000     50.000000000000000
H      50.148674298103721     49.486629161407251     50.282935694972231
H      49.696769997505456     49.194426566964765     50.257981782978284
H      50.348842258943080     48.758487740306116     50.164976566758853
H      48.994652134525261     49.117929963820444     49.989512639082790
H      49.730108913833888     50.671947191667513     50.087256255630173
H      49.312882780550552     49.364341677830247     50.879497288366885
H      48.715906200217169     49.599377516700351     50.418845455669221
H      49.898725819503746     48.631357589351751     50.643558198058145
H      50.217043833785020     50.503586279202970     49.747582115940311
H      50.149285426605530     50.725594904256937     50.425045424991445
H      49.830407431930730     49.578475115042366     49.785297907153549
H      48.747972721343430     49.015635299184851     49.452168159156855
H      49.629888809206136     50.007208240364889     51.088408751706964
H      49.274117708770355     49.168228082140146     51.506066322771275
H      50.400302771150187     50.426623792353560     49.136122188769058
H      49.675593852437011     48.016309775585079     50.514905580036135
H      49.438094765805722     48.440542881363349     51.327621457976321
H      49.471247057975184     48.641863207418311     50.034650893728681
H      49.472043294607282     47.584671391039159     50.665095002578205
H      50.275864729001626     49.217135286603991     50.940536248903420
H      50.903101109155116     49.128699266686851     51.100755683143632
H      49.158689254908239     49.338797223146685     52.103550348035157
H      48.554053810638308     49.147005782687970     50.631129033285440
H      50.069604091112993     50.316870199259277     48.691682665530742
H      49.558171180179905     49.853975739273956     48.329445432159446
H      50.464820666345695     48.172278620727987     50.060487035217797
H      49.215410731888362     49.868542245226784     48.867886916125663
H      48.474927975004448     48.669928472937166     49.931481954799438
H      50.129792801249543     51.016231642447131     50.832914284737498
H      49.265399099640575     46.910174619861003     50.826140258255634
H      49.394648845174515     49.751959511321616     47.704590409474093
H      49.345310149843684     50.382154993739960     47.796212052600609
H      50.872915905228737     50.505115249788538     49.847762017861143
H      50.305529706597540     49.810928929551679     48.141801653122094
H      49.618429885607291     49.761705542279579     47.039963776906028
H      48.954478696613080     49.990810614261967     48.355565881212037
H      49.696873089017309     50.441729513142448     48.160004518017338
