38
lj38_benchmark
H      50.000000000000000     50.000000000000000     50.000000000000000
H      50.066947094994852     50.591435906870956     50.350145359924902
H      49.543448541934090     50.844849578734703     50.709123801188092
H      50.374508265794482     49.756879103773748     49.619585146797263
H      50.611307496222537     50.795102571437113     50.609156000231323
H      49.926021640845605     49.709812967200520     49.314704293905436
H      49.703646945662342     51.213400173760391     50.039965508185347
H      49.672858627512312     50.675822319719920     49.575421726951888
H      49.529508471996202     50.167162666101817     50.196159230009719
H      50.921334132090827     49.992445013333324     49.967823565662052
H      48.973599395511393     50.383023637912764     50.421236387920011
H      49.467925879071345     49.371246386005460     49.119792513583775
H      49.442550317169200     49.611272902114763     50.007488447199123
H      49.754289006648598     50.454082177950362     49.085246628966274
H      48.907733003184745     49.801280873901398     49.469020475098986
H      49.576290288031508     50.665468638768814     50.080158668245026
H      49.633069578485959     50.935307910377055     48.529970049718933
H      49.168821744196691     50.987154261334595     48.856291181586464
H      50.614433563953781     49.761618134957651     49.184262186217872
H      49.112722724296596     51.401970153056510     48.153017727273181
H      48.705041893169735     49.286181366625662     49.457140110069076
H      49.405152848833545     51.783671569345579     47.987385601994291
H      49.833112566438537     51.655411065209847     49.394767937859498
H      49.252031932107357     51.687404098480187     47.306708651443671
H      51.263275175028596     50.029427793421533     49.244269592456412
H      51.248325327736012     51.015058135639109     50.268447863479295
H      48.827623264812900     50.015445335768320     48.754801977007901
H      49.211899983110534     50.357947791014411     50.990438126261509
H      48.988435368970443     51.264137819787237     47.371951517516010
H      50.264666903369218     51.267144148349779     50.100931828099995
H      50.903487580840995     49.271996364609713     50.257774104191249
H      51.717208060650435     51.488505604609863     50.503402571928063
H      48.450140936247678     51.425011923945192     47.287818115614982
H      51.337221958615466     50.746148808093032     49.755960294947840
H      49.023647133828192     51.405317414952115     49.165328075744398
H      48.965332420553139     50.624083756418599     51.698617141634273
H      49.399183969860552     52.478326652377078     47.587920112252348
H      51.747164366701746     49.813948159479487     49.718076853975418
