38
lj38_benchmark
H      50.000000000000000     50.000000000000000     50.000000000000000
H      50.125322140407981     50.148127593170031     49.253887692347426
H      50.582355492757117     49.952869986376193     50.437392340972600
H      49.658749427771895     50.420309622266537     49.105320108653807
H      49.547813670840007     50.090024226524761     50.462255270805649
H      48.997861222464472     50.568654397073416     49.029354369123745
H      49.464899671744568     49.844015150130893     48.890001861146295
H      49.056580313210468     51.125580836118282     48.707501835143290
H      48.529685986865722     50.509253490075437     48.436744758192539
H      50.733023036120983     50.517768687700872     49.121054339362978
H      48.973277078896430     50.545676007888389     50.654523678699405
H      48.942238491321646     51.544402657054214     49.206250592637474
H      48.644609811156371     50.190011896718659     49.116935672323862
H      50.410758018500282     49.551093599783776     49.099987820698040
H      48.664489591630172     50.717289891103732     47.725118629575753
H      48.829928304155366     50.215733844978253     47.722807622602986
H      48.737564707896652     49.938834841553160     48.550898430340858
H      49.168456857451169     50.047406950820481     49.267859969772282
H      49.499234810913428     49.701442544621933     49.906672455722806
H      48.676028039393302     49.382289276359245     49.048153080599135
H      48.933810531361715     50.396026056936947     51.170404376122498
H      49.354473623947214     50.893416428977808     50.983787279025307
H      48.039119659356956     51.115661310265075     47.954019179561065
H      49.524785683463264     51.380702113406599     50.504028486776456
H      50.608302421527931     50.638788381092716     48.577832431051135
H      49.559016569988316     50.734838895737283     51.433456962188465
H      49.748508909614507     50.415269089361665     51.053861288904876
H      50.521381591231474     51.088464286729888     48.771637039135143
H      48.922654537080440     52.298654777243364     49.385547748573494
H      48.923597136684151     49.762848320584283     50.141311973972925
H      48.608921661211390     51.211545797584670     50.813786804218900
H      48.913236690734109     49.308482193048796     49.912502638666247
H      50.352024793230044     50.614505853602388     50.396857437986142
H      48.348399175997308     48.988641569240826     48.589923005090050
H      50.774110155134181     50.267177778242342     49.880874403587313
H      50.712702995366804     49.664437403537832     48.584009179046149
H      49.170131044332365     50.804686906551503     50.154961809176001
H      51.470296055489783     50.256440003731441     49.065023230625499
