38
lj38_benchmark
H      50.000000000000000     50.000000000000000     50.000000000000000
H      50.330713803235575     50.620447730768952     50.322771217812225
H      50.978290025067217     50.550325195670922     50.322327548835446
H      49.777711470259312     50.141610788846855     50.682486952444002
H      51.626002109868281     50.166718525985601     50.520053423020599
H      51.993202895599040     50.274479263782560     50.936710755996998
H      50.706076926775502     50.923226949228372     50.625856140862496
H      50.871766990788231     51.433056130370538     51.007583546627167
H      51.628285081123288     50.368712791665011     49.752845605879372
H      49.219127287237413     49.883410194450036     50.697639422572330
H      50.868443995445929     50.108015732792495     50.646914002883470
H      52.062918276177783     50.835653662409271     49.491915609753768
H      49.252921389548199     49.644263389539930     51.399807266808963
H      51.869426455360355     50.822477733553008     48.810920951981686
H      48.943040528253412     49.323338234818287     50.354297132428577
H      50.442109574866024     49.442805666692344     49.719725996080548
H      50.598111479128875     51.136405594159051     50.010130811364746
H      48.991733017270349     50.458448547685968     50.620698800143401
H      50.205393554897057     49.412786958718286     49.267416222470203
H      51.733729279288582     50.954472313738400     51.117546051531612
H      52.642104188728993     50.709446833026661     49.580348048312423
H      49.381540794875548     48.791998824191026     50.393555987963587
H      50.656195528662053     51.707693680386811     49.564378832600653
H      50.238115525879593     50.026831225676169     49.537500108920696
H      50.965516707698555     52.058631834071747     51.024331207088998
H      49.765190445154218     48.769820486057867     50.039921180697100
H      50.950940278418749     49.185945852777948     49.630642253296195
H      49.392236124188031     51.066291042122067     50.391052289771878
H      49.007177018268266     49.598640291660679     52.123521595639112
H      51.594071522709449     50.915932831905828     49.252099758824016
H      53.255973574045122     50.598541762905064     49.758848686285916
H      48.732858849989007     50.550733133655875     49.931382429010426
H      49.059512655194965     49.754195026037515     49.912407993626168
H      52.320647632319847     50.397753450133415     48.466543408860709
H      51.308827103185820     49.521427264093575     50.310130204054303
H      52.167365361025162     49.873066031331305     49.869694791530932
H      50.236064337665681     49.755931784183446     50.887127193488318
H      52.310521703378143     49.769751553183255     51.031345740982950
